age,ALEX1,ALEX2,ALEX3,ALEX4,ALEX5,ALEX6,ALEX7,ALEX8,ALEX9,ALEX10,ALEX11,ALEX12,ALEX13,ALEX14,ALEX15,ALEX16,anxiety,artgluctot,attachhome,attachphone,AvgHumidity,avoidance,cigs,DIDF,eatdrink,ECR1,ECR2,ECR3,ECR4,ECR5,ECR6,ECR7,ECR8,ECR9,ECR10,ECR11,ECR12,ECR13,ECR14,ECR15,ECR16,ECR17,ECR18,ECR19,ECR20,ECR21,ECR22,ECR23,ECR24,ECR25,ECR26,ECR27,ECR28,ECR29,ECR30,ECR31,ECR32,ECR33,ECR34,ECR35,ECR36,endtime,EOT,exercise,gluctot,health,HOME1,HOME2,HOME3,HOME4,HOME5,HOME6,HOME7,HOME8,HOME9,KAMF1,KAMF2,KAMF3,KAMF4,KAMF5,KAMF6,KAMF7,networksize,nostalgia,onlineid,onlineid1,onlineid2,onlineid3,onlineid4,onlineid5,onlineid6,onlineid7,onlineid8,onlineid9,onlineid10,onlineide11,phone1,phone2,phone3,phone4,phone5,phone6,phone7,phone8,phone9,romantic,scontrol1,scontrol2,scontrol3,scontrol4,scontrol5,scontrol6,scontrol7,scontrol8,scontrol9,scontrol10,scontrol11,scontrol12,scontrol13,selfcontrol,sex,smoke,SNI1,SNI2,SNI3,SNI4,SNI5,SNI6,SNI7,SNI8,SNI9,SNI10,SNI11,SNI12,SNI13,SNI14,SNI15,SNI16,SNI17,SNI18,SNI19,SNI20,SNI21,SNI22,SNI23,SNI24,SNI25,SNI26,SNI27,SNI28,SNI29,SNI30,SNI31,SNI32,SNS1,SNS2,SNS3,SNS4,SNS5,SNS6,SNS7,socialdiversity,socialembedded,STRAQ_1,STRAQ_2,STRAQ_3,STRAQ_4,STRAQ_6,STRAQ_7,STRAQ_8,STRAQ_9,STRAQ_10,STRAQ_11,STRAQ_12,STRAQ_19,STRAQ_20,STRAQ_21,STRAQ_22,STRAQ_23,STRAQ_24,STRAQ_25,STRAQ_26,STRAQ_27,STRAQ_28,STRAQ_29,STRAQ_30,STRAQ_31,STRAQ_32,STRAQ_33,STRAQ_5,STRAQ_13,STRAQ_14,STRAQ_15,STRAQ_16,STRAQ_17,STRAQ_18,STRAQ_34,STRAQ_35,STRAQ_36,STRAQ_37,STRAQ_38,STRAQ_39,STRAQ_40,STRAQ_41,STRAQ_42,STRAQ_43,STRAQ_44,STRAQ_45,STRAQ_46,STRAQ_47,STRAQ_48,STRAQ_49,STRAQ_50,STRAQ_51,STRAQ_52,STRAQ_53,STRAQ_54,STRAQ_55,STRAQ_56,STRAQ_57,stress,stress1,stress2,stress3,stress4,stress5,stress6,stress7,stress8,stress9,stress10,stress11,stress12,stress13,stress14,Temperature_t1,Temperature_t2,thermotype,avgtemp,filter_$,mintemp,language,langfamily,Zanxiety,Zavoidance,Site
1975,1,1,1,2,2,1,2,2,4,1,1,2,4,3,4,2,3.72222222222222,6,3.11111111111111,3.44444444444444,89,3.27777777777778,15,1.63636363636364,1,5,5,3,5,5,3,1,6,5,2,6,3,3,2,3,3,6,1,2,2,5,3,3,2,5,5,3,2,4,2,3,3,4,5,4,2,9:23:38,3,2,0,4,4,3,4,3,3,2,4,3,2,4,4,5,4,4,1,2,17,4.33333333333333,2.27272727272727,2,2,2,4,2,2,2,2,3,2,2,4,4,2,5,2,2,4,4,4,2,2,2,2,1,1,4,2,2,5,4,3,5,4,2.84615384615385,1,1,2,1, ,4,4,5, ,1, ,6,3,1, ,1, ,3,2,6,1,1, ,1, , , , , , , , , , ,6,5,5,3,2,5,4,5,1,4,4,4,5,2,2,2,2,4,2,2,1,4,5,4,2,2,4,3,2,4,3,2,3,4,3,4,4,3,3,2,4,4,1,2,2,4,3,4,5,4,4,1,1,4,4,3,1,2,4,4,2,2,4,2,2,1,3.07692307692308,4,2,4,4,4,3,4,3,3,2,4,3,2,1,34.9,35.9,2,35.4,1,-1.66666666666667,5,1,.186319647739787,-.00190690952064737,Oxford
1995,2,2,2,2,2,2,2,2,4,2,2,2,2,2,3,2,4.05555555555556,0,4.88888888888889,2,89,3, ,2.18181818181818,1,6,4,2,5,5,2,3,5,2,3,7,4,3,3,4,5,5,5,3,4,3,2,2,3,3,4,5,3,2,2,4,2,3,3,3,3,9:23:26,2.2,2,0,4,5,5,5,5,5,4,5,5,5,1,2,6,2,3,2,2,28,6.5,2.63636363636364,3,2,3,3,3,2,2,3,3,3,2,2,2,2,2,2,2,2,2,2,2,4,4,4,4,4,3,4,2,4,3,4,5,4,3.76923076923077,1,2,1,1, ,4,4,1, ,8,6,4,1,1, ,2,8,3,8,5,3,1, ,1, , , , , , , , , , ,6,7,6,7,6,7,6,7,2,2,4,3,3,3,4,5,2,5,3,2,2,4,4,4,3,3,3,3,3,3,3,3,3,3,3,3,5,5,2,4,3,3,4,4,4,4,4,2,3,3,3,4,2,3,4,3,2,3,3,4,4,4,3,4,4,2,2.46153846153846,2,3,3,3,2,2,2,2,2,3,2,4,4,2,35.8,36,2,35.9,1,-1.66666666666667,5,1,.472682850177291,-.249805147204807,Oxford
1995,4,1,1,2,4,1,4,1,1,2,1,1,2,1,1,1,1.44444444444444,0,1.33333333333333,2,89,1.61111111111111, ,2,1,1,1,1,1,1,1,1,1,1,1,1,1,1,7,1,3,1,1,2,2,2,2,2,1,1,1,1,1,2,2,1,2,3,1,1,2,8:57:08,1.2,2,12,4,1,1,4,1,1,1,1,1,1,5,6,5,4,3,1,1,24,6.83333333333333,2.18181818181818,3,4,2,4,1,1,1,3,3,1,1,1,4,1,4,1,1,1,1,4,1,2,3,3,2,4,2,4,1,3,5,4,4,4,3.15384615384615,1,2,1,1, ,4,4,4,4,2,2,5,5,1, ,2,8,2,1,6,1,1, ,1, , , , , , , , , , ,7,7,7,7,7,6,6,8,3,4,5,4,4,4,4,4,4,5,2,1,2,4,2,2,4,5,4,5,1,4,5,1,1,5,3,1,4,4,2,2,1,2,3,2,2,4,2,2,3,2,5,2,2,2,4,4,5,5,5,2,5,4,4,2,1,5,2.38461538461538,3,3,4,1,2,1,2,2,3,3,3,4,2,2,34,36.2,2,35.1,1,-1.66666666666667,5,1,-1.77049556891649,-1.48929633562561,Oxford
1988,2,3,4,5,3,4,2,4,4,3,2,2,4,2,4,3,4.72222222222222,2,3.88888888888889,3,89,3.94444444444444, ,3.27272727272727,2,3,6,6,5,4,4,3,3,4,4,6,5,6,5,5,5,6,5,5,5,5,4,3,4,6,3,3,4,5,3,4,5,3,2,3,4,8:55:14,3,2,0,3,5,4,5,5,4,2,2,4,4,5,4,3,1,2,2,2,19,3.5,2,1,1,2,3,2,2,2,1,2,4,2,2,4,3,2,3,2,3,4,4,1,4,2,1,1,2,1,2,3,4,3,2,2,2,2.23076923076923,2,2,1,1, ,4,4,5, ,1, ,5,1,1, ,1, ,3,8,4,1,1, ,2, , , , , , , , , , ,2,5,3,4,5,2,4,5,1,4,2,3,3,4,3,3,3,2,2,2,2,3,3,3,4,4,2,2,3,2,4,3,4,3,2,4,2,4,4,5,2,2,4,3,4,3,4,3,2,3,2,3,4,3,2,3,4,4,4,5,3,3,3,2,2,4,2.84615384615385,3,3,4,2,3,2,3,2,3,3,4,3,3,2,36.9,37,2,36.95,1,-1.66666666666667,5,1,1.0454092550523,.593048860921336,Oxford
1991,2,1,1,5,2,2,3,4,1,1,2,1,2,4,4,2,2.11111111111111,0,4.66666666666667,1.77777777777778,89,4.94444444444444, ,2.18181818181818,1,1,1,1,1,1,5,2,1,7,1,6,1,2,1,2,1,2,2,1,7,2,5,2,4,2,6,7,6,6,6,7,2,7,6,6,7,8:54:35,2.6,2,5,4,5,5,5,5,4,5,4,4,5,1,1,3,2,2,2,1,29,1.5,1.90909090909091,3,2,1,4,1,1,1,1,2,2,3,2,1,1,1,1,3,2,1,4,2,3,5,5,3,5,5,5,4,4,3,4,4,4,4.15384615384615,1,2,2,1, ,2,2,5, ,8,5,7,3,2,8,1, ,3,1,8,1,1, ,1, , , , , , , , , , ,1,2,2,1,2,1,1,7,2,1,1,1,4,4,1,3,4,1,1,1,4,4,2,3,4,4,4,4,5,4,4,4,1,1,1,4,1,1,4,1,4,3,4,5,5,4,4,4,4,3,4,4,4,1,1,4,4,4,4,1,1,4,5,4,4,1,2.53846153846154,3,4,3,2,2,1,3,2,2,3,3,5,2,3,35.3,36.1,4,35.7,1,-1.66666666666667,5,1,-1.19776916404149,1.48548251658431,Oxford
1995,2,3,1,3,2,1,1,2,1,2,1,2,3,4,5,4,2,0,3.33333333333333,2.44444444444444,89,3.77777777777778, ,1.72727272727273,1,1,1,1,2,2,1,1,2,6,2,2,2,4,1,2,1,3,2,5,5,4,4,3,4,3,3,1,3,6,5,4,3,4,5,3,3,8:39:12,3.6,2,0,4,4,4,4,4,4,2,2,3,3,3,3,3,2,2,4,4,33,2,2.45454545454545,4,4,2,4,3,1,2,1,2,1,3,3,3,2,3,2,2,2,3,2,2,5,5,5,2,3,4,3,3,5,5,5,4,3,4,1,2,2,1, ,4,4,5, ,2,1,5,5,1, ,2,8,1, , ,8,1, ,2,Rowing Club,Rugby Club, , , ,7,7, , , ,1,2,3,2,2,2,2,6,4,2,4,4,4,4,3,4,3,2,4,2,4,2,4,1,5,3,3,4,4,4,3,3,2,2,3,4,3,2,2,2,2,3,2,4,4,4,4,4,2,3,4,2,2,2,4,2,2,2,4,3,2,2,2,3,2,1,2.07692307692308,2,2,3,2,2,2,2,2,2,2,2,4,2,2,34.7,36.4,4,35.55,1,-1.66666666666667,5,1,-1.29322356485399,.44430991831084,Oxford
1996,1,1,1,1,4,1,2,1,4,2,1,2,4,3,5,5,2.55555555555556, ,3.11111111111111,3.77777777777778,89,6.44444444444444, ,1.72727272727273,1,2,1,4,1,4,1,2,7,1,4,2,1,2,1,1,2,6,4,7,1,6,7,7,7,7,7,7,6,6,7,7,7,6,7,7,7,8:32:08,3.8,2, ,4,5,2,4,5,2,1,5,1,3,2,2,2,2,2,2,2,53,5.83333333333333,2.81818181818182,4,4,2,2,3,2,2,2,4,2,4,3,4,5,4,1,3,5,5,4,2,2,4,2,2,1,3,2,2,4,5,3,1,2,2.53846153846154,2,2,2,1, ,4,4,5, ,3,2,8,8,1, ,2,8,1, , ,6,1, ,2,University Friends,Business Social,Lecturers/ Advisors,Friends from home,Neighbors,20,15,5,9,6,6,7,5,5,6,6,5, , ,2,4,2,4,5,4,5,5,4,1,2,4,2,3,2,5,2,4,4,1,5,2,2,2,5,3,2,1,1,5,1,5,1,1,2,4,2,4,5,2,2,4,2,1,1,1,4,1,1,3,5,5,1,4,3,2,4,1.53846153846154,1,2,1,2,2,2,1,1,2,1,2,4,2,1,36,36.3,2,36.15,1,-1.66666666666667,5,1,-.815951560791479,2.82413300007877,Oxford
1973,3,3,2,3,4,4,4,4,4,5,3,2,2,3,4,1,3.05555555555556,0,3.55555555555556,3.33333333333333,89,3.22222222222222,10,3.54545454545455,1,3,2,3,2,3,3,3,3,3,1,5,2,5,4,5,3,3,2,3,2,4,3,3,3,4,4,4,3,3,2,2,3,3,4,6,2,8:28:57,2.4,2,1,1,3,3,2,4,3,4,5,4,4,3,3,2,2,2,3,3,17,6.33333333333333,2.54545454545455,2,3,3,2,3,2,4,3,2,1,3,3,4,3,3,2,4,3,4,4,2,1,4,5,2,2,3,3,2,4,3,2,3,2,2.76923076923077,1,1,4,1, ,4,2,5, ,8,3,4,4,1, ,2,8,1, , ,4,2,2,2,ODAA, , , , ,1, , , , ,6,6,7,6,7,6,6,7,2,3,2,3,4,2,3,4,3,2,4,2,2,3,4,4,4,4,3,4,3,4,2,3,2,1,2,4,4,3,2,3,1,4,3,5,4,4,5,2,2,1,4,3,2,4,4,3,2,2,3,2,4,3,4,2,2,2,3,4,3,3,3,3,3,4,4,1,3,2,4,3,3,36.5,36.6,2,36.55,1,-1.66666666666667,5,1,-.386406757135223,-.0514865570574791,Oxford
1996,2,3,1,3,2,2,2,2,2,2,1,2,2,4,3,2,3.55555555555556,0,3.33333333333333,1.88888888888889,89,4, ,2,1,4,4,4,4,4,1,4,4,4,4,2,4,4,1,4,4,4,4,4,4,4,4,4,4,4,4,4,4,4,4,4,4,4,4,4,4,8:28:03,2.6,2,0,3,3,3,4,5,4,3,2,3,3,3,3,2,1,3,3,1,17,5.66666666666667,1.81818181818182,2,3,2,2,2,1,2,2,1,1,2,3,2,1,4,3,1,1,1,1,2,3,3,5,5,5,3,4,5,3,4,2,4,2,3.69230769230769,1,2,2,1, ,4,4,5, ,2,2,3,2,1, ,2,8,1, , ,1,1, ,2,Oxford Latin Speaking Society,Oxford Latin Conversation Society,Plato Reading Group, , ,2,4,1, , ,7,7,6,6,5,3,3,6,2,3,5,4,2,2,1,2,2,4,4,2,2,2,4,5,4,2,3,3,2,3,3,4,3,4,3,1,4,5,2,2,1,3,2,1,2,2,5,2,2,2,4,2,1,4,3,3,1,1,3,4,2,2,2,2,2,2,2.61538461538462,5,2,3,2,2,2,2,3,2,4,1,5,3,3,34.7,36.3,2,35.5,1,-1.66666666666667,5,1,.0431380465210342,.642628508458168,Oxford
1996,3,3,1,2,4,1,2,4,4,1,4,1,2,3,5,4,4.38888888888889,0,3.22222222222222,4.22222222222222,89,5.27777777777778,1,2.63636363636364,1,5,6,6,5,4,3,5,7,3,3,6,4,4,2,1,4,7,4,5,7,5,5,6,5,6,7,7,4,4,5,3,6,5,6,5,4,8:25:57,3,2,2,3,4,5,3,3,4,2,2,3,3,4,5,1,3,2,3,2,19,5.16666666666667,3.90909090909091,5,4,5,4,3,3,4,3,3,4,5,4,4,2,4,5,4,5,5,5,2,3,4,5,1,2,1,2,4,3,2,5,3,2,2.84615384615385,2,1,2,1, ,4,4,5, ,6,3,8,8,1, ,2,8,1, , ,3,1, ,1, , , , , , , , , , ,7,4,5,5,5,5,4,6,3,1,4,4,4,3,3,2,4,5,5,1,2,1,4,3,4,2,2,3,4,5,3,3,3,4,3,1,5,5,4,4,4,4,2,4,4,4,1,4,4,4,4,3,2,2,3,4,2,2,4,5,4,2,4,4,2,2,3.15384615384615,3,4,5,4,3,1,3,4,3,3,2,4,2,4,35.9,36.3,2,36.1,1,-1.66666666666667,5,1,.759046052614796,1.7829604018053,Oxford
1993,4,4,4,4,4,4,4,4,4,4,4,2,4,2,4,2,3.94444444444444,0,4,2.44444444444444,89,4.11111111111111, ,4,1,4,4,4,4,4,4,4,4,4,4,3,4,4,4,4,4,4,4,5,4,4,4,4,4,4,4,4,4,4,4,4,5,4,4,4,4,8:19:59,2.8,2,3,2,4,4,4,4,4,4,4,4,4,4,5,2,2,2,2,2,25,4.5,2.18181818181818,2,2,4,2,2,2,2,2,2,2,2,2,3,2,3,2,2,3,2,3,1,4,2,2,2,1,1,3,4,3,3,1,1,1,2.15384615384615,2,2,2,1, ,4,4,2,1,8,5,5,4,1, ,2,5,1, , ,1,1, ,2,Sport,Social,Coffee Club, , ,3,4,2, , ,7,4,4,4,4,4,5,7,2,5,3,5,5,5,5,3,5,1,1,1,4,4,5,5,4,5,5,5,3,4,3,3,3,3,3,5,1,1,5,1,5,5,5,3,4,3,5,5,5,5,5,3,3,3,3,4,3,4,3,3,3,3,3,3,3,3,3.53846153846154,4,2,4,4,4,3,4,4,3,4,3,3,4,3,34.4,35.9,2,35.15,1,-1.66666666666667,5,1,.37722844936479,.741787803531831,Oxford
1945,2,2,4,2,2,2,2,2,2,1,2,3,2,2,2,2,3.11111111111111,8,4,1.77777777777778,89,2.66666666666667, ,2.09090909090909,1,5,3,3,2,4,3,2,2,3,4,5,4,2,2,2,5,3,2,2,2,2,2,2,1,1,2,3,2,5,2,3,2,4,4,3,6,8:19:48,2.2,2,0,3,5,3,4,4,3,4,4,5,4,5,5,5,2,3,2,1,13,5.16666666666667,1.27272727272727,1,2,1,1,1,1,1,2,2,1,1,2,2,2,1,2,1,2,2,2,1,3,4,2,2,2,3,2,3,5,3,3,4,4,3.07692307692308,1,2,1,6,4,2,2,1, ,1, ,3,2,1, ,1, ,1, , ,4,1, ,1, , , , , , , , , , ,6,5,5,5,5,5,5,5,1,1,3,2,5,3,3,5,5,3,3,1,4,4,4,5,3,5,4,4,1,4,4,1,1,5,2,4,3,2,4,1,4,3,3,4,5,4,5,3,2,3,4,1,2,2,3,2,2,3,2,4,1,1,1,2,4,1,2.15384615384615,3,3,3,2,2,2,2,2,1,2,3,3,1,2,35,35.2,2,35.1,1,-1.66666666666667,5,1,-.338679556728972,-.547283032425799,Oxford
1995,2,4,3,4,3,2,4,3,3,2,2,2,4,2,4,3,4,0,4.11111111111111,3.44444444444444,89,4, ,2.90909090909091,1,4,4,4,4,4,4,4,4,4,4,4,4,4,4,4,4,4,4,4,4,4,4,4,4,4,4,4,4,4,4,4,4,4,4,4,4,8:13:51,3,2,1,4,5,4,4,4,4,4,4,4,4,4,5,4,2,4,3,4,14,4.16666666666667,3.09090909090909,3,4,3,3,3,2,3,3,3,4,3,4,4,4,4,3,2,4,4,2,2,4,4,5,2,2,5,3,2,2,3,3,3,2,3.07692307692308,1,2,2,1, ,4,4,5, ,4,3,4,3,1, ,2,5,1, , ,3,1, ,1, , , , , , , , , , ,5,4,4,4,4,4,4,6,2,3,4,5,4,3,2,3,1,5,4,1,2,4,5,2,3,3,3,3,3,2,3,4,3,2,3,2,3,3,3,2,4,3,2,2,2,2,4,3,3,3,3,2,2,3,3,4,3,2,3,3,3,3,3,3,2,3,2.30769230769231,3,3,4,2,2,1,2,3,1,2,3,3,2,2,37,34.8,2,35.9,1,-1.66666666666667,5,1,.42495564977104,.642628508458168,Oxford
1994,4,3,3,2,2,4,4,2,2,5,2,2,2,2,2,1,4.22222222222222,8,3.11111111111111,2.55555555555556,89,3.11111111111111, ,3,1,4,4,4,3,7,6,4,6,3,5,3,5,3,4,5,4,3,3,4,3,5,3,3,2,3,4,1,2,3,3,3,5,3,2,3,4,8:10:41,1.8,2,6,3,4,4,4,3,3,2,1,4,3,4,3,4,2,2,2,2,29,5.66666666666667,2.63636363636364,3,3,3,4,2,1,2,2,3,2,4,2,3,2,3,3,2,2,2,4,2,1,3,2,1,3,2,1,1,2,3,3,3,2,2.07692307692308,1,2,2,1, ,4,4,5, ,8,1,8,8,1, ,2,8,1, , ,1,1, ,2,acting group,ball committee, , , ,7,7, , , ,6,7,5,5,6,5,5,6,3,2,4,3,5,2,2,5,2,1,3,2,3,2,4,3,4,3,3,3,1,4,3,3,2,2,2,5,2,2,4,2,4,2,2,2,4,2,2,2,2,2,3,4,2,3,4,3,2,2,4,3,4,3,3,3,2,4,2.84615384615385,3,4,5,2,2,2,2,3,2,3,4,5,2,3,36.6,36.3,2,36.45,1,-1.66666666666667,5,1,.615864451396043,-.150645852131143,Oxford
1990,2,3,1,4,1,2,3,2,2,2,1,2,2,3,3,4,2.11111111111111,0,3.77777777777778,1.33333333333333,89,3.22222222222222, ,2.09090909090909,1,1,2,2,2,2,2,2,2,2,2,6,4,2,2,1,2,1,1,3,5,3,3,3,1,2,3,3,3,6,6,3,2,3,3,3,3,8:10:40,2.8,2,1.14,3,4,4,4,4,4,4,2,4,4,3,2,2,2,2,3,1,23,3.16666666666667,1.27272727272727,2,2,1,2,1,1,1,1,1,1,1,1,1,1,2,1,1,2,1,2,1,2,3,4,2,3,2,2,2,3,4,2,5,2,2.76923076923077,1,2,2,1, ,4,4,4,1,2,2,5,1,1, ,1, ,3,1,8,5,1, ,1, , , , , , , , , , ,3,4,2,2,4,4,2,7,2,2,4,4,4,2,2,2,2,4,3,2,1,4,4,2,4,4,3,4,4,4,2,2,2,2,2,2,2,4,2,2,4,3,2,2,2,4,5,2,3,2,4,1,2,4,4,4,4,3,3,4,5,2,2,2,2,1,2.23076923076923,2,3,3,3,2,2,2,2,2,2,2,4,3,1,34.6,36.2,2,35.4,1,-1.66666666666667,5,1,-1.19776916404149,-.0514865570574791,Oxford
1995,2,4,1,2,2,1,3,2,1,1,1,2,1,1,1,1,2.5,0,4.66666666666667,2.33333333333333,89,1.61111111111111, ,1.81818181818182,1,3,3,4,4,2,4,1,1,2,2,2,2,2,1,2,1,5,4,2,1,2,2,1,3,2,1,1,1,1,2,1,1,2,2,1,3,8:09:17,1.2,2,0,5,5,5,5,5,5,4,4,5,4,5,8,6,3,4,3,5,33,4.66666666666667,1.63636363636364,2,2,1,3,1,1,1,1,2,2,2,3,3,1,3,1,1,3,1,5,1,2,3,4,3,1,2,2,3,4,5,3,4,3,3,2,2,2,1, ,4,1,5, ,4,1,8,8,1, ,2,8,1, , ,1,1, ,2,Choir,Rowing,The JCR, , ,7,7,7, , ,5,5,5,5,5,3,3,6,2,2,4,4,4,2,2,4,4,4,3,1,4,3,4,2,4,5,5,4,4,4,4,4,2,2,4,2,5,4,3,3,2,4,2,1,4,3,4,2,2,2,2,2,2,4,4,4,2,4,4,2,5,4,4,4,2,2,2,2,3,3,1,2,2,2,3,2,1,2,5,1,2,35,36.4,2,35.7,1,-1.66666666666667,5,1,-.86367876119773,-1.48929633562561,Oxford
1985,2,3,2,3,1,2,2,3,4,2,1,4,1,3,3,5,3.61111111111111,0,3.22222222222222,3,89,3.11111111111111, ,2.27272727272727,1,5,3,2,3,5,5,3,5,3,2,5,3,3,5,3,2,3,5,5,3,5,1,1,4,5,3,4,2,3,3,2,2,3,3,3,4,8:08:50,3.2,2,1,3,4,3,3,3,4,3,3,3,3,4,6,5,4,3,3,5,17,5,3.18181818181818,3,2,4,3,4,3,4,2,4,3,3,4,3,1,4,4,1,3,3,4,2,3,2,3,3,4,3,2,3,4,3,2,2,3,2.84615384615385,1,2,2,1, ,4,4,5, ,2,1,3,3,1, ,2,5,1, , ,3,1, ,2,Choir, , , , ,5, , , , ,5,5,5,5,5,5,5,6,2,3,3,4,4,3,2,3,4,5,3,3,2,3,2,4,4,4,4,4,4,4,5,4,2,2,2,2,4,4,4,2,4,4,2,3,3,2,3,2,3,2,2,2,4,2,4,4,4,4,4,3,5,3,2,2,2,1,3,3,3,4,3,3,3,2,3,3,3,3,4,3,3,35.2,36.1,2,35.65,1,-1.66666666666667,5,1,.0908652469272851,-.150645852131143,Oxford
1993,2,3,1,3,2,2,2,3,4,2,2,2,2,3,4,2,2.77777777777778,0,3.88888888888889,2.55555555555556,89,3.88888888888889, ,2.36363636363636,1,2,2,2,2,4,2,2,3,4,3,4,3,4,2,2,3,3,3,4,3,4,4,4,4,3,4,4,4,4,5,4,3,4,3,4,5,8:06:22,2.6,2,2,2,4,4,4,4,4,4,3,4,4,4,4,4,4,3,2,3,9,3.83333333333333,2.27272727272727,2,2,2,2,1,1,4,2,4,2,3,3,4,2,1,1,3,4,3,2,2,3,2,4,2,4,1,2,2,3,4,4,4,2,2.84615384615385,2,2,2,1, ,4,2,5, ,3,1,4,4,1, ,2,8,1, , ,1,1, ,1, , , , , , , , , , ,4,5,3,3,4,4,4,6,1,4,2,4,4,5,2,1,5,4,3,2,2,2,3,3,3,3,3,4,3,2,3,3,2,2,3,3,2,2,3,2,3,3,2,2,3,2,2,2,3,3,3,3,2,3,2,3,2,2,1,3,4,3,3,4,1,3,2.92307692307692,3,3,4,3,3,3,3,3,3,3,3,3,2,2,34.9,36.1,2,35.5,1,-1.66666666666667,5,1,-.625042759166476,.543469213384504,Oxford
1981,1,1,1,2,1,1,1,1,2,1,1,3,2,2,3,5,2.11111111111111,0,4,3.22222222222222,89,2.33333333333333, ,1.18181818181818,1,2,2,2,2,4,2,2,2,2,2,2,2,2,2,2,2,2,2,2,2,2,2,2,2,2,2,6,2,2,2,2,2,4,2,2,2,8:05:35,3,2,0,5,4,4,4,4,4,4,4,4,4,2,2,3,2,2,1,1,35,5.83333333333333,2.90909090909091,4,3,4,3,4,2,2,2,2,2,4,4,4,3,4,2,2,4,2,4,1,3,4,5,4,4,3,2,4,4,4,2,4,3,3.53846153846154,1,2,2,1, ,2,2,5, ,8,8,4,3,2,8,2,8,3,3,8,2,1, ,1, , , , , , , , , , ,5,7,7,6,5,5,5,8,3,1,4,4,4,2,2,3,3,4,3,2,4,4,4,4,4,4,4,4,4,4,4,4,2,2,2,3,4,3,2,2,2,4,3,2,3,3,2,3,4,3,4,4,4,2,3,3,3,3,2,3,2,2,2,3,4,2,2.07692307692308,2,3,2,3,2,2,1,2,2,2,2,4,2,2,34.7,36,2,35.35,1,-1.66666666666667,5,1,-1.19776916404149,-.84476091764679,Oxford
1995,2,4,2,2,4,4,4,2,2,4,3,2,2,1,4,2,3.38888888888889,0,4.11111111111111,2.88888888888889,89,3.83333333333333, ,3,1,2,2,4,3,3,6,2,6,2,3,3,2,6,2,6,2,6,1,3,3,5,5,5,7,6,2,3,5,2,6,2,5,3,3,2,2,8:04:56,2.2,2,6,4,4,4,4,4,5,4,3,4,5,3,4,4,6,2,5,5,20,5.16666666666667,2.54545454545455,4,4,2,4,1,2,1,1,4,1,4,3,4,1,4,4,5,2,1,2,1,3,3,4,2,4,1,4,1,3,3,3,3,4,2.92307692307692,1,2,2,1, ,4,4,5, ,3,1,7,6,2,2,2,7,3,1,4,1,1, ,1, , , , , , , , , , ,4,6,7,6,5,3,5,8,3,2,2,4,5,3,4,3,4,4,4,4,4,4,5,2,4,4,2,5,4,4,4,2,1,3,4,4,2,4,5,2,3,4,2,3,5,2,5,3,3,2,4,4,2,2,4,4,2,3,1,2,4,2,4,4,2,3,3.30769230769231,3,4,5,2,3,3,2,4,2,4,4,5,2,5,34.6,36.5,2,35.55,1,-1.66666666666667,5,1,-.100043554697718,.493889565847672,Oxford
1991,3,2,2,3,2,3,3,2,3,2,3,2,2,3,3,3,3.33333333333333,0,3.55555555555556,2,89,3.83333333333333, ,2.54545454545455,2,3,4,3,4,4,3,3,4,3,3,4,3,3,3,4,3,3,3,3,4,3,4,4,3,3,5,5,5,4,4,4,3,5,3,4,3,8:00:30,2.6,2,0,5,4,3,4,3,3,3,4,4,4,4,5,4,3,3,3,3,25,6,2,2,2,2,2,2,2,2,2,2,2,2,2,2,2,2,2,2,2,2,2,1,2,3,3,4,3,3,3,2,3,3,2,3,2,2.76923076923077,1,2,1,1, ,4,4,4,1,1, ,4,8,2,8,2,3,1, , ,1,2,2,1, , , , , , , , , , ,6,6,6,6,6,6,6,8,3,4,4,4,4,2,2,4,3,3,3,2,2,2,4,3,4,2,2,2,2,2,2,2,3,2,2,3,3,4,3,3,3,4,3,3,4,4,3,2,3,4,3,2,3,4,3,3,3,2,4,4,4,2,2,3,3,3,2.92307692307692,3,3,2,3,3,3,3,3,3,3,3,4,3,3,34.1,36.2,2,35.15,1,-1.66666666666667,5,1,-.147770755103969,.493889565847672,Oxford
1987,2,4,2,4,2,2,4,2,2,3,2,2,2,3,3,2,2.27777777777778,0,3,2.44444444444444,88,2.33333333333333, ,2.63636363636364,1,3,2,1,2,2,2,1,2,2,1,5,2,2,2,3,2,6,1,1,1,5,2,5,2,2,2,2,2,1,1,1,1,5,5,2,2,7:20:00,2.4,2,0,3,4,3,4,4,3,4,2,2,1,5,5,4,2,2,6,4,31,5,1.27272727272727,3,1,1,2,1,1,1,1,1,1,1,2,4,2,4,2,1,2,2,3,1,2,5,2,3,4,2,1,5,4,3,3,3,2,3,2,2,1,1, ,4,1,4,2,5,1,8,6,1, ,1, ,3,8,8,1,1, ,2,Music Group, , , , ,3, , , , ,6,6,4,4,5,5,6,7,2,3,3,4,4,2,1,1,3,5,2,2,3,3,4,3,3,5,4,3,3,3,3,3,1,2,1,2,3,3,3,3,2,2,3,4,4,4,4,2,3,2,4,2,2,4,3,3,2,2,3,2,3,3,2,2,4,2,2.30769230769231,2,3,3,2,2,1,3,3,2,2,2,5,2,3,35.5,36.9,2,36.2,1,-2.22222222222222,5,1,-1.05458756282273,-.84476091764679,Oxford
1995,2,4,1,3,2,2,2,2,3,3,2,2,1,2,2,2,2.16666666666667,4,4.22222222222222,3,88,1.33333333333333, ,2.36363636363636,1,4,2,1,2,4,2,1,2,3,1,2,2,1,4,1,1,5,1,1,1,1,2,2,1,1,1,1,2,1,1,1,1,2,2,2,1,7:19:46,1.8,2,0,3,4,4,4,5,5,5,3,4,4,5,7,4,5,3,3,6,23,4.16666666666667,2.45454545454545,4,2,2,4,2,2,2,2,2,3,2,3,4,3,4,1,2,4,2,4,1,2,3,5,3,3,1,1,2,3,3,5,2,2,2.69230769230769,2,2,2,1, ,4,4,4,1,4,1,8,6,1, ,2,8,3,1,1,8,1, ,1, , , , , , , , , , ,3,5,5,4,5,3,3,8,4,1,4,2,5,4,3,2,4,1,4,1,2,2,4,4,4,5,3,5,3,4,4,2,5,1,3,2,4,4,4,2,2,4,2,2,3,2,5,2,2,4,4,2,2,2,4,4,4,3,4,3,2,4,2,3,2,4,2.53846153846154,2,2,4,3,3,2,3,2,2,2,3,3,3,2,35.9,36.7,2,36.3,1,-2.22222222222222,5,1,-1.15004196363523,-1.73719457330976,Oxford
1948,3,4,1,2,4,2,3,4,2,1,2,2,2,2,4,2,2.11111111111111,0,4.44444444444444,2.55555555555556,88,2.27777777777778, ,2.54545454545455,1,1,1,1,1,2,2,2,1,7,1,1,2,1,1,1,2,4,7,1,1,1,7,7,3,2,2,6,1,1,1,1,1,1,2,1,2,9:12:23,2.4,2,3,2,5,5,5,5,5,4,3,4,4,4,4,4,4,5,1,2,27,4.5,1.36363636363636,4,1,1,2,1,1,1,1,1,1,1,1,3,2,4,1,2,2,4,4,1,2,4,4,2,3,4,2,2,4,4,4,2,3,3.07692307692308,2,2,1,3,3,1, ,1, ,4,3,1,1,2,8,1, ,1, , ,3,2,8,1, , , , , , , , , , ,3,6,6,5,4,3,2,7,3,1,4,4,5,2,2,2,4,5,2,2,2,4,5,5,2,4,4,5,2,4,5,4,1,4,2,1,4,5,2,1,2,5,3,5,3,4,1,2,4,2,4,2,2,2,4,2,1,3,4,4,1,4,5,4,5,1,2.30769230769231,2,2,3,2,2,1,3,2,2,2,3,3,3,3,36.1,35.8,2,35.95,1,-2.22222222222222,5,1,-1.19776916404149,-.894340565183622,Oxford
1997,3,2,2,2,2,2,2,2,1,2,4,3,4,2,3,2,1.55555555555556,0,2.88888888888889,2.66666666666667,88,1.27777777777778, ,2.18181818181818,1,1,1,1,1,1,3,1,1,1,1,3,1,2,3,1,2,3,1,1,1,3,1,1,1,2,1,1,1,1,1,1,1,1,3,1,1,9:10:18,2.8,2,15,4,4,3,4,3,2,2,2,3,3,3,4,5,4,4,2,6,24,5.33333333333333,2.81818181818182,4,3,4,4,4,2,2,2,2,1,3,2,3,2,4,2,2,4,1,4,1,3,3,3,2,4,2,3,2,4,3,4,2,4,3,2,2,1,1, ,4,4,4,4,4,4,6,6,2,1,2,8,1, , ,4,1, ,1, , , , , , , , , , ,6,5,6,3,6,6,6,8,3,1,2,2,5,5,4,2,5,4,3,1,4,4,4,2,4,5,5,5,2,5,4,2,2,4,3,5,1,2,3,1,4,3,3,2,5,4,2,2,4,3,3,2,4,2,3,5,5,5,5,2,4,2,5,4,2,4,2.46153846153846,3,4,3,2,1,1,2,4,2,2,4,4,1,3,35,36.7,2,35.85,1,-2.22222222222222,5,1,-1.67504116810399,-1.7867742208466,Oxford
1980,3,3,3,4,2,4,4,3,1,3,1,1,1,1,1,2,6.72222222222222,0,5,2.11111111111111,88,4, ,2.81818181818182,1,7,7,7,7,7,7,7,7,7,7,7,7,7,6,7,7,6,4,5,6,6,4,6,2,1,7,4,4,3,1,4,1,4,4,4,6,9:08:43,1.2,2,9,1,5,5,5,5,5,5,5,5,5,2,2,2,2,2,2,2,18,1,2.27272727272727,3,3,3,2,3,1,2,2,2,1,3,2,4,1,2,1,1,3,1,4,2,3,1,4,2,2,1,2,2,3,5,1,2,3,2.38461538461538,1,2,2,1, ,4,4,5, ,8,4,4,4,2,1,1, ,2,1,2,1,1, ,1, , , , , , , , , , ,1,1,1,1,1,1,1,7,1,4,4,5,5,3,3,3,3,4,4,3,1,5,5,5,5,5,5,5,5,3,3,4,3,1,2,2,4,4,4,4,3,4,3,1,3,3,4,4,3,5,4,2,1,2,4,3,5,5,3,4,5,3,5,3,1,3,3,4,3,3,2,2,3,3,4,2,3,3,5,3,4,35.5,36.7,2,36.1,1,-2.22222222222222,5,1,2.76358846967733,.642628508458168,Oxford
1967,2,2,4,3,2,3,2,2,2,2,2,2,2,2,2,3,5.05555555555556,2,3.44444444444444,3.22222222222222,88,4.72222222222222, ,2.36363636363636,1,6,6,4,6,6,6,6,5,4,6,4,6,4,6,4,4,4,4,4,6,6,7,6,4,4,4,6,2,2,7,2,4,6,7,4,4,9:00:57,2.2,2,0,3,4,4,4,4,5,5,2,2,1,5,3,4,2,1,1,2,43,1.5,1.81818181818182,1,1,1,4,1,2,1,1,3,1,4,4,4,2,4,4,2,3,4,2,2,2,5,2,3,4,5,1,4,4,5,3,4,3,3.46153846153846,2,2,3,3,3,3,1,5, ,3,1,8,4,1, ,2,8,2,8,8,3,1, ,2,teachers,pupils, , , ,7,7, , , ,1,2,1,1,2,2,2,8,2,1,5,3,5,5,1,2,4,5,4,5,3,3,4,1,5,3,3,3,3,4,3,3,3,3,3,1,2,4,4,1,4,2,3,2,3,2,3,2,2,2,3,3,3,1,3,3,3,4,4,3,1,3,2,4,3,1,2.30769230769231,3,2,3,2,2,2,2,3,2,2,3,5,2,2,34.9,36.8,2,35.85,1,-2.22222222222222,5,1,1.3317724574898,1.28716392643698,Oxford
1997,4,3,2,3,4,4,4,4,2,2,3,4,4,2,2,1,5.72222222222222,0,3.88888888888889,3.44444444444444,88,2.55555555555556, ,3.18181818181818,1,7,7,6,5,5,6,7,6,7,4,7,2,4,7,7,7,7,2,2,2,3,1,2,5,3,2,4,2,2,1,3,2,5,1,1,5,8:54:59,2.6,2,2,3,4,4,2,5,5,4,5,3,3,5,6,7,4,4,2,2,21,5,3.36363636363636,5,4,4,4,4,2,3,2,3,2,4,3,5,3,4,2,2,4,3,5,2,2,2,1,3,4,1,1,2,2,3,2,3,3,2.23076923076923,2,2,2,1, ,4,4,5, ,3,2,5,5,2,1,2,8,3,1,5,2,1, ,1, , , , , , , , , , ,4,5,6,3,7,5,5,8,3,2,4,3,4,4,4,4,3,2,2,2,2,4,3,4,4,5,5,4,2,4,3,3,3,2,4,4,1,3,3,2,5,5,2,3,3,5,5,2,3,3,3,3,3,2,3,4,3,4,4,3,3,4,3,2,2,4,3.15384615384615,2,2,5,4,2,2,3,4,3,5,2,5,3,4,35,37,2,36,1,-2.22222222222222,5,1,1.90449886236481,-.646442327499463,Oxford
1992,2,3,1,3,3,2,4,3,2,3,4,1,2,2,3,2,2.77777777777778,0,3,2.11111111111111,88,2.72222222222222, ,2.72727272727273,1,4,4,2,4,1,4,3,3,2,2,2,1,1,3,6,1,6,1,4,2,6,4,2,2,3,2,5,2,2,2,1,2,3,3,2,2,8:52:59,2,2,0,4,3,2,3,3,2,3,4,4,3,4,6,2,4,3,4,4,27,3.83333333333333,3.54545454545455,4,4,4,3,4,2,3,4,5,2,4,1,1,1,4,1,2,4,1,4,1,3,3,2,4,4,2,3,3,2,4,3,4,3,3.07692307692308,2,2,2,1, ,2,2,4,1,3,1,6,3,1, ,1, ,2,8,8,1,1, ,2,Oxford University Roleplaying Society, , , , ,2, , , , ,5,5,4,3,3,3,3,7,1,1,3,5,4,2,2,2,4,5,4,1,2,3,5,5,5,3,3,4,2,2,3,2,2,2,2,2,5,4,3,3,3,3,2,1,3,4,5,1,3,4,3,2,2,3,3,4,3,3,2,3,2,2,3,2,2,4,3.23076923076923,3,4,4,3,3,3,3,3,3,3,4,5,2,4,35.3,36.3,2,35.8,1,-2.22222222222222,5,1,-.625042759166476,-.497703384888966,Oxford
1986,2,3,1,2,2,1,2,2,2,1,2,2,3,1,3,1,4.16666666666667,0,3.33333333333333,1.88888888888889,88,3.22222222222222, ,1.81818181818182,1,6,4,5,6,6,4,3,7,3,2,4,6,5,6,1,4,2,1,3,3,5,2,3,3,1,4,3,5,2,3,5,2,5,5,1,3,8:51:12,2,2,2,5,4,3,5,5,3,3,2,3,2,3,4,5,2,2,3,3,16,3,1.72727272727273,3,3,2,3,1,1,1,1,1,1,2,1,2,2,2,2,2,2,2,2,1,5,4,5,3,5,5,5,4,5,4,5,5,5,4.61538461538462,2,2,2,1, ,2,2,4,1,1, ,5,2,1, ,1, ,3,1,8,1,1, ,1, , , , , , , , , , ,4,3,4,2,3,2,2,6,0,2,4,4,4,1,3,4,4,5,2,2,2,4,4,5,4,5,5,4,3,4,4,3,3,4,2,3,4,5,2,4,3,2,2,5,4,2,4,2,3,4,2,3,4,4,3,4,3,4,4,2,3,2,3,3,2,3,2.15384615384615,2,3,2,3,2,2,2,2,3,2,3,2,1,1,35.7,35.9,2,35.8,1,-2.22222222222222,5,1,.568137250989793,-.0514865570574791,Oxford
1995,2,2,3,2,2,1,2,2,4,2,1,3,2,3,3,3,3.72222222222222,0,4.33333333333333,2.11111111111111,88,3.94444444444444, ,2.09090909090909,1,6,2,4,3,6,3,2,6,3,2,4,2,4,2,5,6,5,2,5,4,5,4,4,5,5,3,5,2,3,3,2,6,3,4,4,4,8:50:56,2.8,2,0,2,5,5,5,5,5,3,4,4,3,2,2,2,1,1,2,2,14,3.66666666666667,2,4,3,2,3,1,1,2,1,1,2,2,2,2,3,2,4,2,1,2,1,2,2,1,4,5,1,2,3,2,3,4,5,4,3,3,2,2,2,1, ,4,4,3,1,1, ,7,6,2,1,2,8,1, , ,1,1, ,1, , , , , , , , , , ,3,5,4,4,3,3,3,7,3,4,4,4,2,1,3,4,2,5,4,2,2,3,5,4,2,3,2,3,3,3,3,3,2,2,3,1,5,3,3,4,4,4,2,5,4,2,2,2,4,5,4,3,2,5,3,4,2,1,2,5,3,2,2,3,1,5,2.92307692307692,4,3,4,3,3,2,3,3,2,3,2,5,2,4,35.8,36.6,2,36.2,1,-2.22222222222222,5,1,.186319647739787,.593048860921336,Oxford
1994,4,4,1,4,4,3,3,4,2,3,3,2,3,2,5,2,4.33333333333333,0,5,2.66666666666667,88,3.61111111111111, ,3.18181818181818,1,3,5,5,6,5,6,3,5,5,3,5,5,3,4,4,3,6,2,3,3,4,3,3,3,4,5,5,3,3,2,3,5,3,5,4,4,8:43:41,2.8,2,1,3,5,5,5,5,5,5,5,5,5,4,5,4,2,2,3,4,22,4.5,2.90909090909091,4,4,4,3,4,1,2,1,3,2,4,3,3,2,2,1,3,4,2,4,2,1,3,3,2,2,2,3,3,3,4,2,3,2,2.53846153846154,2,2,2,1, ,4,4,5, ,3,3,6,5,1, ,2,8,1, , ,1,2,8,1, , , , , , , , , , ,5,4,4,5,4,5,4,7,4,2,5,4,4,3,2,2,3,5,5,2,2,3,4,4,3,4,3,3,3,3,3,2,3,1,3,4,4,5,3,4,3,4,3,5,4,5,2,4,2,4,4,3,3,2,4,3,2,2,4,3,3,3,3,2,2,3,2.61538461538462,3,4,3,2,2,2,2,3,2,2,3,3,2,4,36.6,36.9,2,36.75,1,-2.22222222222222,5,1,.711318852208545,.295570975700344,Oxford
1991,2,3,2,2,2,3,3,2,2,3,2,2,2,1,2,2,4.61111111111111,0,3.55555555555556,3.22222222222222,88,4.11111111111111, ,2.36363636363636,1,6,5,6,6,6,4,5,5,4,2,3,5,5,3,5,5,4,4,5,3,5,4,5,5,3,4,4,3,4,5,3,3,5,5,3,5,8:41:47,1.8,2,4,4,4,4,4,4,4,4,2,3,3,3,4,3,2,2,2,3,24,5.5,2.45454545454545,3,2,2,4,1,2,2,3,2,3,3,3,5,3,4,2,1,4,3,4,2,2,2,4,2,2,1,3,2,4,3,2,4,3,2.61538461538462,2,2,2,1, ,4,4,5, ,8,1,8,4,1, ,2,8,1, , ,2,1, ,2,Oxford sirens,phonetics class, , , ,10,5, , , ,6,6,6,5,5,5,5,6,2,2,5,3,4,2,2,2,2,5,2,1,3,2,4,3,5,4,4,4,3,4,3,4,2,2,2,2,2,4,5,2,3,4,2,2,4,2,3,2,2,2,4,2,2,2,3,3,2,2,4,3,2,3,4,3,2,2,2.53846153846154,2,3,3,2,3,2,2,3,2,3,3,3,3,2,36.3,36,2,36.15,1,-2.22222222222222,5,1,.949954854239798,.741787803531831,Oxford
1981,2,5,4,2,3,4,4,3,2,3,2,3,1,1,2,1,4.22222222222222,0,3.55555555555556,3.22222222222222,88,2.72222222222222, ,3.09090909090909,2,7,4,4,4,5,5,6,2,6,4,4,3,6,5,3,2,1,5,3,2,4,7,2,2,2,3,2,3,2,2,2,2,2,4,3,2,8:35:56,1.6,2,4,3,4,4,4,4,4,3,3,3,3,4,5,7,1,6,5,5,20,4,2.18181818181818,2,2,2,3,2,2,2,2,2,2,3,3,4,3,4,3,2,3,4,3,1,4,4,2,2,2,3,2,2,4,3,3,4,3,2.92307692307692,1,2,1,1, ,4,4,4,4,4,2,4,2,1, ,2,4,2,3,3,1,1, ,2, , , , , , , , , , ,5,4,5,4,3,3,4,8,1,1,3,1,5,5,2,2,5,2,2,5,2,4,2,2,4,5,5,5,3,4,3,2,2,3,3,5,1,3,5,1,5,3,4,5,4,3,5,4,2,1,4,2,5,1,4,5,5,3,4,2,3,4,4,5,3,5,2.69230769230769,3,3,3,2,3,2,3,2,3,2,3,4,3,3,36.3,36.7,2,36.5,1,-2.22222222222222,5,1,.615864451396043,-.497703384888966,Oxford
1987,1,1,1,1,1,2,3,2,2,1,1,2,2,2,1,3,1.33333333333333,27,3.55555555555556,1.44444444444444,88,1, ,1.45454545454545,1,1,1,1,1,1,1,1,1,1,3,1,1,1,1,1,4,2,1,1,1,1,1,1,1,1,1,1,1,1,1,1,1,1,1,1,1,8:35:11,2,2,0,5,5,5,4,5,5,3,3,1,1,5,8,6,1,2,7,5,30,1.5,2.27272727272727,4,1,1,3,1,4,4,1,4,1,1,2,1,1,2,1,1,2,1,2,1,4,5,4,2,4,4,4,4,5,5,5,4,5,4.23076923076923,2,2,1,1, ,4,4,4,4,6,4,5,3,1, ,2,8,3,8,5,1,1, ,1, , , , , , , , , , ,2,1,1,1,2,2,2,8,2,2,1,2,5,5,3,5,2,1,1,2,3,3,2,1,5,5,2,5,4,5,5,4,1,1,1,5,1,1,4,2,1,1,1,2,5,2,4,2,4,4,1,1,1,1,2,4,4,5,4,3,2,4,4,4,5,4,1.61538461538462,1,1,2,2,1,1,1,2,2,1,3,5,1,3,35.5,36.4,2,35.95,1,-2.22222222222222,5,1,-1.865949969729,-2.03467245853076,Oxford
1995,2,2,4,1,2,4,2,2,2,2,2,1,2,2,3,1,2.61111111111111,2,5,2.66666666666667,88,1.72222222222222, ,2.27272727272727,1,3,5,1,3,3,1,1,4,5,1,2,3,5,4,1,1,1,3,3,2,3,1,1,6,1,1,1,1,1,1,1,2,2,2,1,1,8:32:34,1.8,2,0,4,5,5,5,5,5,5,5,5,5,3,4,5,3,3,2,3,16,4,3.36363636363636,4,4,4,4,4,2,2,3,4,2,4,3,3,2,3,2,2,3,4,2,1,5,3,3,3,5,2,5,3,3,4,3,3,4,3.53846153846154,2,2,2,1, ,4,4,5, ,2,2,8,3,2,3,2,8,1, , ,3,1, ,1, , , , , , , , , , ,4,5,5,4,3,3,3,7,2,4,5,4,4,2,5,5,3,5,2,2,4,4,3,3,4,4,4,4,4,4,4,3,2,2,2,2,4,5,2,4,2,3,2,4,4,3,2,3,4,4,3,2,2,3,4,2,2,2,4,2,2,4,4,4,4,4,2.46153846153846,3,3,3,2,2,2,2,3,2,2,3,4,2,3,35.4,36.9,2,36.15,1,-2.22222222222222,5,1,-.768224360385228,-1.39013704055194,Oxford
1968,4,4,3,2,4,2,4,2,2,1,3,1,1,1,1,1,6.16666666666667,0,3.77777777777778,4.33333333333333,88,2.61111111111111, ,2.81818181818182,1,7,7,7,7,7,7,6,7,7,3,7,6,4,6,7,5,7,4,1,2,6,3,1,1,6,3,3,1,1,1,1,6,3,3,3,2,8:25:01,1,2,0,2,4,2,4,4,2,5,4,5,4,5,6,5,4,6,8,5, ,4.66666666666667,4.72727272727273,5,5,5,5,5,4,4,4,5,5,5,5,4,4,4,4,5,5,3,5,2,2,2,4,4,4,1,2,2,2,3,2,2,3,2.53846153846154,2,2,4,1, ,4,1,5, ,4,1,8,8,1, ,2,8,2,1,8,4,1, ,2,Professional Body,Professional peer group,Yoga,Martial arts,politics,0,4,7,7,3,7,5,4,4,4,4,4,8,2,2,5,2,4,4,4,4,4,5,3,2,2,5,4,5,4,5,5,5,2,4,5,2,2,2,2,1,3,5,5,2,3,5,3,1,5,2,2,2,4,4,4,3,2,1,4,4,4,4,5,2,4,5,4,4,2,5,3.61538461538462,5,4,4,3,3,4,3,5,3,4,2,5,2,5,34.2,36.7,2,35.45,1,-2.22222222222222,5,1,2.28631646561482,-.59686267996263,Oxford
1989,2,2,2,2,2,1,2,2,2,2,1,2,3,2,4,3,2.27777777777778,0,2.88888888888889,2.66666666666667,88,2.05555555555556, ,1.81818181818182,1,2,2,2,2,2,2,1,3,6,2,6,2,1,2,2,1,2,1,2,2,2,2,2,1,2,1,6,2,2,2,1,2,2,2,2,2,8:23:37,2.8,2,1,4,4,4,4,4,2,2,2,2,2,4,3,3,3,3,2,2,13,3,1.72727272727273,2,3,2,2,1,1,1,1,2,2,2,2,4,2,4,2,2,3,2,3,1,2,2,3,2,2,2,2,2,2,4,4,4,4,2.69230769230769,2,2,4,1, ,4,2,4,1,1, ,8,8,1, ,2,4,1, , ,1,1, ,1, , , , , , , , , , ,2,3,3,3,3,4,2,6,1,2,4,4,4,4,4,4,4,4,4,1,2,4,5,3,3,3,4,4,2,2,3,2,1,3,2,2,4,4,4,3,2,4,3,2,4,2,3,2,3,3,2,2,2,2,2,4,4,4,2,4,4,2,4,4,4,4,1.84615384615385,2,2,3,2,1,1,1,2,2,1,3,5,1,3,36,36.8,2,36.4,1,-2.22222222222222,5,1,-1.05458756282273,-1.09265915533095,Oxford
1994,3,4,2,2,2,2,2,4,2,2,2,1,2,2,2,2,3.72222222222222,0,4.88888888888889,2.66666666666667,88,3.05555555555556, ,2.45454545454545,1,3,3,5,3,5,2,2,5,5,3,3,3,4,5,5,3,5,3,2,2,3,2,3,5,5,3,3,3,2,2,2,3,3,5,3,4,8:12:33,1.8,2,0,5,5,5,5,5,5,5,4,5,5,4,3,3,2,2,2,3,13,5.83333333333333,1.72727272727273,2,2,3,2,2,1,2,1,1,2,1,2,4,1,4,4,2,2,2,3,2,4,3,4,5,4,2,3,4,3,3,4,4,4,3.61538461538462,2,2,2,1, ,4,2,5, ,4,1,8,5,1, ,2,8,1, , ,4,1, ,1, , , , , , , , , , ,7,6,5,5,6,6,5,6,2,1,4,2,5,4,2,3,4,4,2,1,2,4,5,4,3,3,3,3,4,2,4,4,3,2,3,4,2,4,5,2,3,2,3,4,2,4,3,2,2,4,3,4,4,2,4,4,4,3,3,2,4,4,4,4,2,4,2.61538461538462,3,3,4,3,2,2,2,2,3,3,2,4,2,3,35.8,36.7,2,36.25,1,-2.22222222222222,5,1,.186319647739787,-.200225499667975,Oxford
1994,2,4,1,4,3,1,2,2,1,4,2,1,1,2,2,2,2.38888888888889,0,1.55555555555556,1.66666666666667,88,3.27777777777778, ,2.36363636363636,1,2,1,3,2,2,2,1,5,3,2,3,1,2,1,5,2,5,1,2,2,6,3,3,2,3,3,3,3,4,3,1,3,7,5,4,2,8:09:36,1.6,2,1,4,2,2,2,3,1,1,1,1,1,4,6,5,2,2,6,1,30,4.16666666666667,2.27272727272727,3,3,3,3,2,1,3,1,3,1,2,2,1,1,1,2,1,3,1,3,2,3,4,3,3,5,2,4,3,2,4,4,4,3,3.38461538461538,2,2,2,1, ,4,3,5, ,8,6,8,8,1, ,1, ,3,1,8,2,2,1,1, , , , , , , , , , ,4,4,4,3,5,5,5,7,2,1,1,2,5,5,1,3,3,2,2,1,3,3,3,2,5,3,4,3,2,5,3,2,2,2,2,5,1,2,2,1,2,4,2,1,4,2,4,3,2,1,5,1,2,2,3,3,4,3,4,3,3,2,4,2,2,2,2.69230769230769,3,2,5,3,2,2,3,3,3,2,3,5,1,3,35.8,36.6,4,36.2,1,-2.22222222222222,5,1,-.959133162010231,-.00190690952064737,Oxford
1987,2,5,1,4,1,1,5,5,1,4,1,4,5,3,4,3,1.88888888888889,0,3.66666666666667,2.33333333333333,88,3.16666666666667, ,2.72727272727273,1,2,1,1,1,1,1,1,2,2,1,7,1,7,1,2,1,1,1,3,5,4,2,5,2,5,2,2,3,5,5,3,1,2,2,2,4,8:08:41,3.8,2,3,3,5,4,4,5,3,3,3,4,2,4,4,3,1,3,1,2,24,4.66666666666667,1.18181818181818,2,1,1,2,1,1,1,1,1,1,1,2,4,1,3,1,1,1,4,4,2,2,3,5,2,4,3,2,4,4,4,2,4,2,3.15384615384615,2,2,2,1, ,4,4,5, ,2,1,6,3,1, ,1, ,3,1,6,1,1, ,2,Archery club, , , , ,7, , , , ,4,5,5,5,4,5,4,6,1,1,1,1,5,3,2,2,2,2,2,1,1,3,4,4,3,2,1,3,2,3,2,1,1,3,2,4,1,2,5,5,5,3,2,1,3,4,2,2,2,2,1,3,1,1,3,4,1,1,3,4,2,1,2,2,1,1,2.92307692307692,3,3,5,3,3,2,3,3,3,2,3,4,2,3,36.6,36.7,2,36.65,1,-2.22222222222222,5,1,-1.38867796566649,-.101066204594311,Oxford
1970,2,3,3,2,2,3,2,2,2,2,1,2,3,2,3,4,2,0,4.44444444444444,2.55555555555556,71,2.22222222222222, ,2.18181818181818,1,6,2,1,2,2,1,1,3,1,1,2,2,2,2,2,2,3,1,2,2,3,1,2,2,2,2,6,2,2,2,2,2,1,3,2,2,7:15:03,2.8,2,0,3,5,5,5,5,4,5,4,4,3,5,7,4,2,3,2,1,24,4.66666666666667,2.45454545454545,2,4,4,4,2,2,1,2,2,1,3,2,3,3,2,2,3,3,1,4,1,4,1,4,4,4,3,1,4,3,4,5,5,4,3.53846153846154,1,2,2,1, ,4,4,4,1,5,2,3,1,1, ,1, ,2,4,6,5,1, ,1, , , , , , , , , , ,6,5,4,4,6,3,3,7,2,3,4,4,4,2,1,3,2,5,5,2,2,2,5,5,3,3,2,4,4,3,3,3,2,2,2,2,4,5,4,3,3,3,1,2,2,3,2,2,3,3,4,2,1,2,3,3,4,3,2,3,2,2,4,2,2,1,2.07692307692308,2,2,3,2,3,2,2,2,1,2,2,2,2,2,34.9,36.6,2,35.75,1,1.66666666666667,5,1,-1.29322356485399,-.943920212720454,Oxford
1958,2,2,4,3,2,3,3,2,2,2,2,4,4,2,4,3,2.38888888888889,0,4.77777777777778,2,86,2.11111111111111, ,2.45454545454545,1,2,2,2,2,2,3,2,3,2,2,2,2,2,2,2,4,5,2,2,2,2,2,2,2,2,2,2,2,3,2,2,2,2,2,2,3,9:20:23,3.4,2,0,3,5,4,5,5,4,5,5,5,5,4,6,6,4,4,3,1,22,2.66666666666667,2,2,2,2,2,2,2,2,2,2,2,2,2,2,2,2,2,2,2,2,2,1,4,3,4,2,3,2,2,3,4,4,4,4,2,3.15384615384615,2,2,1,1, ,2,2,1, ,1, ,7,3,1, ,1, ,3,1,8,2,1, ,2,choir, , , , ,5, , , , ,3,3,3,3,2,2,3,5,0,2,4,3,4,2,3,2,2,4,2,2,2,3,4,2,4,4,4,4,2,4,4,2,2,4,2,3,2,3,3,2,3,3,2,4,3,2,2,2,4,3,4,2,2,2,3,4,2,3,3,4,2,3,4,3,2,3,2.84615384615385,3,3,4,2,3,2,3,3,3,3,3,4,2,3,36.5,36.7,2,36.6,1,0,5,1,-.959133162010231,-1.04307950779412,Oxford
1988,3,4,2,2,4,4,4,4,2,3,2,2,2,2,2,2,4.88888888888889,0,1.77777777777778,3.33333333333333,86,3.66666666666667, ,3.09090909090909,1,6,6,6,5,5,6,4,5,6,4,5,4,4,4,5,5,6,2,3,5,5,3,2,3,4,3,5,3,3,5,2,4,5,4,4,3,9:15:33,2,2,0,1,2,2,2,1,3,1,2,2,1,4,7,5,5,5,5,5,12,6.5,2.45454545454545,2,2,3,2,2,2,4,2,2,4,2,4,4,4,4,2,2,4,2,4,2,1,1,4,4,3,1,1,1,1,1,1,3,2,1.84615384615385,1,2,2,1, ,4,3,5, ,1, ,2,1,2,4,2,4,1, , ,3,1, ,1, , , , , , , , , , ,6,7,7,7,6,6,5,6,0,2,2,1,4,4,3,2,3,4,2,2,2,3,3,3,4,3,3,3,1,3,3,1,3,5,3,3,2,3,4,2,3,3,2,3,4,3,2,2,3,4,3,4,2,2,3,4,2,2,3,4,4,4,4,3,2,4,3.76923076923077,5,4,5,3,4,3,3,3,3,4,4,5,4,4,36.4,36.7,2,36.55,1,0,5,1,1.18859085627105,.345150623237176,Oxford
1991,2,4,1,2,3,1,2,2,3,2,2,3,2,2,4,3,2.33333333333333,0,4.44444444444444,3.22222222222222,86,2.22222222222222, ,2.18181818181818,1,2,3,2,3,2,2,2,4,2,2,2,2,2,2,2,3,3,2,2,2,2,2,2,2,2,2,6,2,2,2,2,2,2,2,2,2,9:00:54,2.8,2,0,4,5,4,4,5,4,5,3,5,5,4,3,4,3,2,2,2,19,6,2.90909090909091,4,3,4,3,4,2,2,2,2,2,4,3,4,2,4,3,2,3,4,4,1,5,4,4,4,4,4,4,4,4,4,4,3,4,4,2,2,2,1, ,4,4,5, ,4,3,7,5,2,1,2,8,1, , ,3,1, ,2,College Student Body, , , , ,2, , , , ,6,6,6,6,6,6,6,7,3,1,3,4,4,5,2,3,4,4,2,1,2,3,4,3,3,4,4,4,3,3,4,4,1,1,2,1,2,3,4,2,3,3,3,4,4,4,3,2,2,3,3,2,2,2,4,4,2,2,3,3,2,2,4,3,3,1,2.30769230769231,2,3,4,2,2,2,2,3,2,2,2,4,1,3,36.4,36.6,2,36.5,1,0,5,1,-1.00686036241648,-.943920212720454,Oxford
1996,1,5,1,4,2,3,2,5,5,3,1,2,4,4,5,5,2.72222222222222,0,4.11111111111111,2.11111111111111,86,5.61111111111111, ,2.90909090909091,1,3,4,2,3,4,4,3,6,2,4,1,1,1,1,2,3,4,1,7,6,4,6,7,7,6,6,6,5,4,7,5,5,5,5,6,4,8:57:39,4,2,12,3,5,4,5,5,5,4,2,4,3,3,3,3,2,2,2,1,9,3.66666666666667,2.09090909090909,2,1,3,3,2,2,2,2,3,1,2,1,4,1,4,2,1,2,2,2,2,2,1,4,4,4,1,1,2,3,2,3,2,3,2.46153846153846,1,2,2,1, ,4,4,5, ,1, ,5,3,1, ,2,8,1, , ,1,1, ,1, , , , , , , , , , ,5,3,2,4,4,4,4,5,2,4,4,4,5,2,1,2,4,5,1,5,3,1,5,3,2,3,2,4,3,3,2,2,4,3,2,1,4,5,2,4,3,4,1,1,4,2,1,4,4,2,4,3,1,2,3,2,1,1,2,5,4,2,3,3,1,2,2.38461538461538,1,2,2,2,3,3,3,3,2,3,2,4,4,1,36.1,36.4,2,36.25,1,0,5,1,-.672769959572727,2.08043828702629,Oxford
1985,2,3,1,4,1,1,2,2,2,2,2,1,4,2,4,2,2.88888888888889,.5,3.33333333333333,1.55555555555556,86,2.61111111111111, ,2,2,5,2,2,2,7,3,2,2,2,2,2,2,2,4,5,1,5,2,3,3,3,3,2,2,2,2,2,3,2,4,2,2,3,3,2,4,8:56:21,2.6,2,0,4,5,5,4,5,4,2,1,3,1,4,6,5,3,3,2,4,13,4.33333333333333,1.36363636363636,2,2,1,2,1,1,1,1,1,2,1,1,1,1,3,2,1,1,1,3,1,4,1,3,2,3,2,2,1,4,2,3,4,3,2.61538461538462,1,2,1,1, ,4,1,4,1,1, ,1,1,1, ,1, ,3,1,7,1,1, ,1, , , , , , , , , , ,5,3,4,4,5,5,5,6,0,2,4,2,5,4,2,3,3,5,4,2,2,3,5,2,4,4,3,4,2,3,3,2,2,4,3,3,4,5,5,1,3,4,2,1,2,3,3,1,2,2,2,2,1,2,3,3,2,2,1,4,2,2,4,3,2,4,2.38461538461538,2,2,4,3,3,3,2,3,2,2,2,4,1,2,35.3,36.2,2,35.75,1,0,5,1,-.529588358353975,-.59686267996263,Oxford
1992,1,2,2,2,2,1,2,3,2,3,1,2,4,2,3,3,1.22222222222222,0,4.22222222222222,3.33333333333333,86,1, ,1.90909090909091,1,1,1,1,1,1,1,1,1,1,1,1,1,1,1,1,5,1,1,1,1,1,1,1,1,1,1,1,1,1,1,1,1,1,1,1,1,8:53:45,2.8,2,0,4,4,4,4,5,5,4,4,4,4,1,2,3,2,2,2,2,15,5.16666666666667,2.81818181818182,4,4,2,4,3,1,2,2,3,2,4,3,4,4,4,3,2,4,1,5,1,2,2,5,4,3,2,3,3,4,4,3,4,2,3.15384615384615,2,2,2,1, ,4,4,5, ,6,5,6,4,1, ,2,8,1, , ,1,1, ,1, , , , , , , , , , ,6,6,5,5,5,4,4,6,2,1,3,2,4,4,1,2,4,4,3,1,2,3,3,5,2,4,4,4,3,3,3,2,1,2,1,2,2,3,4,2,4,3,3,5,4,4,3,2,4,4,2,3,3,2,4,4,2,3,2,3,5,4,4,2,2,4,2.15384615384615,2,3,2,2,2,2,3,2,2,2,2,4,2,2,34.8,36.1,2,35.45,1,0,5,1,-1.9614043705415,-2.03467245853076,Oxford
1995,4,2,2,2,4,2,4,4,2,3,2,3,3,2,2,2,3.66666666666667,2,3.66666666666667,3.22222222222222,86,2.33333333333333, ,2.81818181818182,1,5,5,5,4,2,5,5,2,4,2,4,2,5,3,3,2,6,2,2,2,3,3,2,2,2,2,1,3,2,3,2,2,3,3,2,3,8:53:38,2.4,2,2,4,4,4,4,4,4,4,2,4,3,5,7,6,6,4,7,6,13,6,3.27272727272727,3,4,5,4,4,2,2,2,4,2,4,4,4,2,4,2,2,4,3,4,1,4,5,2,1,2,2,3,1,4,5,4,3,4,3.07692307692308,1,2,2,1, ,4,4,5, ,2,1,8,6,1, ,2,8,1, , ,1,1, ,1, , , , , , , , , , ,7,6,6,6,6,5,6,6,3,4,4,4,5,2,4,4,2,4,2,2,4,4,3,3,3,5,4,5,4,4,4,4,1,1,1,4,4,4,2,2,2,4,3,2,4,2,4,4,1,3,2,1,3,2,4,2,4,4,2,3,4,4,4,2,3,3,2.15384615384615,3,3,3,2,2,2,2,2,2,2,2,5,1,2,34.1,36.1,2,35.1,1,0,5,1,.138592447333536,-.84476091764679,Oxford
1995,2,2,1,2,2,2,1,4,1,1,1,1,2,1,3,2,4.16666666666667,0,3.22222222222222,1.44444444444444,86,4.66666666666667,3,1.72727272727273,1,4,6,5,6,6,5,4,6,2,4,4,3,4,1,6,2,6,1,5,4,6,6,5,4,4,6,6,5,4,4,3,5,2,6,5,4,8:33:20,1.8,2,3,4,5,4,3,4,4,3,2,2,2,3,2,1,2,2,2,2,37,2.33333333333333,1.81818181818182,3,2,2,2,2,2,1,1,2,1,2,1,1,2,2,1,1,3,1,1,2,2,4,3,2,3,2,4,2,1,5,3,4,2,2.84615384615385,2,1,2,1, ,2,2,5, ,2,2,5,3,1, ,2,8,1, , ,8,1, ,2,Portuguese faculty,German tutorial group,Polo,college, ,7,4,3,7, ,2,2,3,1,3,3,2,6,3,2,2,4,4,2,2,1,4,4,3,2,3,2,5,4,5,4,4,3,2,3,3,3,3,2,3,2,5,4,4,2,2,5,1,4,5,2,5,2,1,2,4,2,1,2,3,4,2,1,2,4,4,2,2,2,2,2,2.23076923076923,1,5,4,2,1,2,2,1,2,2,3,5,2,2,35.9,36.1,2,36,1,0,5,1,.568137250989793,1.23758427890015,Oxford
1994,4,4,1,4,4,1,4,4,3,1,2,2,2,3,4,4,4.11111111111111,0,3.44444444444444,3.11111111111111,86,3.66666666666667, ,2.90909090909091,1,5,5,3,5,4,5,3,5,5,3,5,3,3,4,5,3,5,3,5,3,3,3,4,3,3,3,3,5,4,5,4,3,3,4,5,3,8:22:30,3,2,0,4,4,4,4,4,4,2,2,4,3,2,2,3,2,1,2,2,19,3.66666666666667,2.81818181818182,4,4,4,4,2,1,1,2,4,1,4,4,4,2,2,4,2,4,4,2,2,4,3,4,3,4,4,3,4,4,3,3,3,4,3.53846153846154,2,2,2,1, ,4,4,5, ,4,4,4,4,1, ,2,8,1, , ,3,2,3,1, , , , , , , , , , ,4,5,3,2,4,4,4,7,2,4,2,4,4,2,2,2,4,4,2,4,2,4,4,3,4,3,4,3,4,3,3,4,3,3,3,2,3,2,2,3,3,2,4,4,4,4,3,2,3,4,4,4,3,4,3,4,3,3,4,2,4,3,4,3,2,4,2.69230769230769,4,3,3,2,2,2,3,3,2,3,3,4,2,3,36.8,36.8,2,36.8,1,0,5,1,.520410050583542,.345150623237176,Oxford
1957,5,5,4,5,4,4,4,5,3,4,4,3,2,2,4,2,4.33333333333333,0,4,1.66666666666667,86,5.05555555555556,20,4.27272727272727,1,3,5,3,6,2,6,3,6,6,5,6,3,3,2,6,3,6,4,5,3,6,5,6,2,5,6,5,5,3,6,6,5,6,6,5,6,8:15:34,2.6,2,0,2,5,5,5,5,3,2,2,4,5,5,7,6,6,5,6,1,10,3.33333333333333,1,1,1,1,1,1,1,1,1,1,1,1,1,4,1,2,1,1,2,1,2,2,1,5,1,1,1,3,1,2,5,3,2,2,2,2.23076923076923,1,1,4,3,1,1, ,1, ,1, ,8,6,1, ,1, ,1, , ,2,1, ,1, , , , , , , , , , ,7,2,3,2,3,3,4,4,1,5,5,5,4,2,1,4,2,5,3,4,1,2,4,5,2,2,2,4,3,2,3,3,2,3,3,1,5,4,2,3,2,2,4,2,2,4,4,2,4,2,4,2,2,4,4,2,2,2,3,2,2,2,4,2,2,2,3.23076923076923,3,3,4,3,3,3,3,4,3,3,4,3,2,4,35.9,36.4,2,36.15,1,0,5,1,.711318852208545,1.58464181165797,Oxford
1995,2,3,1,4,2,1,2,3,4,2,2,2,1,3,3,3,3.22222222222222,0,3.44444444444444,4.11111111111111,86,4.5, ,2.36363636363636,1,5,3,4,3,3,5,2,5,1,3,2,4,4,1,6,1,5,1,4,4,3,6,6,6,6,6,7,2,3,4,2,5,4,4,5,4,8:15:00,2.4,2,5,2,4,4,3,4,5,4,2,3,2,3,4,4,3,2,3,2,7,3.5,2.54545454545455,2,2,2,3,2,1,3,4,5,2,2,3,5,3,4,4,5,4,4,5,2,2,3,3,3,4,2,2,4,3,4,3,3,4,3.07692307692308,1,2,2,1, ,4,1,5, ,5,1,4,3,1, ,2,5,1, , ,1,1, ,1, , , , , , , , , , ,3,3,3,4,4,4,4,6,1,4,4,4,4,1,2,1,2,5,3,1,1,2,5,5,1,3,4,4,4,1,3,4,3,3,2,4,4,4,4,2,5,2,2,3,3,3,2,2,4,5,2,3,2,4,3,3,4,2,2,3,2,2,2,3,2,1,3.07692307692308,2,2,4,3,4,3,2,4,3,4,3,5,3,3,35,36.2,2,35.6,1,0,5,1,-.24322515591647,1.08884533628966,Oxford
1960,3,1,1,1,1,3,1,2,1,1,1,1,1,3,1,1,2.5,1,3.44444444444444,2.88888888888889,86,5.27777777777778,10,1.45454545454545,1,1,1,1,1,1,4,1,7,7,1,7,1,1,1,7,1,1,1,1,7,6,7,1,1,1,7,7,7,7,7,7,1,7,7,7,7,7:56:56,1.4,2,8,2,5,1,5,3,1,5,5,5,1,3,4,1,2,2,2,2,14,4.16666666666667,1,1,1,1,1,1,1,1,1,1,1,1,2,4,2,4,2,2,4,2,4,2,1,2,5,2,2,2,1,4,5,4,2,2,2,2.61538461538462,1,1,4,2,2,1, ,5, ,1, ,3,1,1, ,2,1,3,1,8,1,1, ,1, , , , , , , , , , ,7,2,5,3,3,5,5,6,0,2,4,4,4,2,2,2,2,5,4,3,1,1,5,5,2,3,1,1,1,1,1,1,1,1,1,2,4,4,4,3,3,4,1,1,4,1,5,1,4,3,2,1,1,3,3,3,2,2,2,5,1,1,4,2,1,1,2.61538461538462,3,3,4,2,2,2,3,2,2,3,3,4,2,3,35.8,36.5,2,36.15,1,0,5,1,-.86367876119773,1.7829604018053,Oxford
1994,2,2,3,2,2,2,2,2,3,5,2,3,5,2,2,2,2.94444444444444,4,1.44444444444444,2.55555555555556,86,4.94444444444444,20,2.45454545454545,2,2,3,2,2,2,2,2,2,6,2,4,2,2,3,6,2,7,2,7,6,6,5,6,7,7,2,3,5,4,5,3,6,5,6,2,4,7:54:56,2.8,2,0,2,1,1,1,2,1,1,1,1,4,3,4,3,2,1,2,3,18,5,1.81818181818182,2,2,2,2,2,1,1,2,2,2,2,1,4,2,4,1,1,4,2,4,1,3,3,1,1,5,1,2,4,4,4,3,2,4,2.84615384615385,2,1,2,1, ,4,2,5, ,4,4,8,4,1, ,2,5,3,1,5,1,1, ,1, , , , , , , , , , ,7,1,1,7,7,7,2,7,2,1,2,4,4,1,5,2,2,2,4,2,4,4,5,5,2,4,4,4,1,3,2,1,4,5,4,5,5,2,2,1,2,1,2,1,5,1,5,5,2,5,5,2,2,4,3,4,4,2,2,5,2,2,2,3,1,4,3.61538461538462,3,4,5,2,3,4,3,5,3,4,3,5,4,4,36.8,37,2,36.9,1,0,5,1,-.481861157947724,1.48548251658431,Oxford
1987,2,1,1,1,2,3,2,1,3,3,3,1,1,2,3,2,3.66666666666667,0,3.88888888888889,2.11111111111111,86,1.72222222222222, ,2,2,5,5,5,5,6,2,1,4,1,5,1,5,1,4,5,5,1,5,3,1,2,2,1,1,1,2,1,2,1,2,1,2,1,3,3,2,7:54:39,1.8,2,0,3,5,4,4,4,2,4,4,4,4,4,4,5,2,2,2,1,11,5,1.36363636363636,4,1,1,1,1,1,1,1,2,1,1,2,4,2,1,1,3,1,1,4,1,4,5,4,3,4,4,4,3,3,4,5,3,2,3.69230769230769,2,2,1,1, ,4,4,4,1,1, ,8,3,1, ,2,8,1, , ,2,1, ,1, , , , , , , , , , ,5,5,5,5,5,5,5,6,2,1,4,4,4,4,2,3,5,2,2,1,4,4,5,2,5,4,2,5,1,4,4,2,1,5,2,4,4,3,2,1,1,1,3,1,5,4,4,1,1,3,5,1,1,1,4,5,4,5,5,1,4,4,3,3,2,1,3.07692307692308,4,3,4,2,3,2,3,4,4,3,3,5,2,3,36,35,4,35.5,1,0,5,1,.138592447333536,-1.39013704055194,Oxford
1989,2,2,3,2,3,2,2,1,2,2,1,2,1,1,2,1,3.27777777777778,0,4.22222222222222,3.11111111111111,71,2.16666666666667,1,2,1,3,3,1,4,2,7,1,3,2,1,5,3,4,6,5,2,5,2,1,1,3,3,2,2,2,2,1,1,2,1,1,2,5,3,5,2,9:28:38,1.4,2,1,4,5,4,4,3,5,5,3,4,5,4,7,4,3,4,3,5,24,6.33333333333333,2.72727272727273,4,2,5,4,4,1,2,2,1,1,4,2,4,4,4,2,1,3,3,5,1,3,3,2,1,2,1,2,1,2,3,3,4,1,2.15384615384615,1,1,1,1, ,4,4,4,3,4,3,8,8,1, ,1, ,2,1,2,2,1, ,1, , , , , , , , , , ,6,6,7,7,7,5,6,7,2,4,2,5,5,3,4,2,2,5,2,1,5,4,4,1,5,4,4,4,4,5,4,4,1,2,2,4,4,3,3,4,2,4,2,2,5,2,4,1,2,2,4,2,4,3,4,3,4,5,4,3,2,2,3,4,1,2,2.46153846153846,3,2,3,2,1,2,3,4,1,2,4,5,2,3,36.3,36.5,2,36.4,1,1.66666666666667,5,1,-.195497955510219,-.993499860257286,Oxford
1993,5,5,5,4,4,5,5,4,2,2,1,1,4,4,4,1,5.16666666666667,0,3.11111111111111,2.11111111111111,71,3.55555555555556,1,3.81818181818182,1,6,5,3,6,7,5,6,3,5,6,1,7,7,6,7,6,5,2,2,2,1,3,6,6,2,5,6,6,2,1,5,7,2,1,1,6,9:10:58,2.8,1,0,3,5,5,1,1,4,5,1,2,4,4,6,7,1,3,2,4,14,5.5,3.27272727272727,2,4,4,4,5,2,1,4,4,1,5,2,2,1,4,2,1,2,1,4,2,1,1,2,1,2,1,1,1,2,1,3,4,2,1.69230769230769,1,1,2,1, ,4,2,5, ,3,3,8,4,1, ,1, ,1, , ,2,2,2,1, , , , , , , , , , ,6,7,3,4,6,7,3,6,1,4,4,2,5,2,2,3,4,4,5,5,2,5,5,3,4,4,4,5,1,4,2,1,4,3,4,5,4,4,2,4,2,1,4,2,4,1,4,5,2,1,5,3,2,4,4,5,3,2,4,5,5,2,1,2,1,2,3.76923076923077,5,5,2,4,4,4,3,4,3,5,4,4,1,5,36.3,36.6,2,36.45,1,1.66666666666667,5,1,1.42722685830231,.245991328163512,Oxford
1997,4,2,2,1,4,2,5,5,3,2,3,1,2,2,3,1,4.55555555555556,0,4.88888888888889,3,71,3.94444444444444,1,3,1,5,5,5,6,4,4,2,5,5,5,4,4,3,2,6,6,6,5,5,1,7,5,7,2,4,5,3,3,2,5,1,4,2,7,3,5,9:02:29,1.8,2,2,2,5,5,5,5,5,5,4,5,5,4,4,3,1,3,5,1,12,6.33333333333333,3.54545454545455,5,5,5,5,4,1,2,2,3,2,5,2,4,2,4,4,1,2,4,4,2,3,2,4,1,2,1,2,2,3,2,4,5,3,2.61538461538462,2,1,2,1, ,4,4,5, ,4,2,4,4,1, ,2,6,1, , ,1,1, ,1, , , , , , , , , , ,7,7,7,7,5,5,6,6,2,1,3,2,4,5,2,2,4,4,3,1,3,4,5,3,4,4,3,4,5,3,4,5,4,1,4,4,1,4,5,1,5,5,1,3,3,4,2,1,4,5,4,2,2,1,1,5,4,5,5,4,3,4,5,4,1,5,2.23076923076923,3,2,2,3,2,1,2,2,2,2,2,4,4,2,35.3,36.6,2,35.95,1,1.66666666666667,5,1,.902227653833548,.593048860921336,Oxford
1982,3,3,1,3,1,3,2,2,4,3,1,2,1,3,3,3,4,0,3.55555555555556,2.44444444444444,71,4.88888888888889, ,2.36363636363636,1,5,5,5,5,5,5,1,5,5,3,2,3,5,1,5,5,6,1,4,4,7,5,5,5,5,5,6,2,4,5,5,5,7,7,4,3,9:01:37,2.4,2,0,4,5,3,5,5,3,3,2,3,3,2,2,2,2,2,3,3,21,4,1,1,1,1,1,1,1,1,1,1,1,1,3,4,1,4,1,1,2,2,4,2,2,4,4,2,3,2,4,2,3,4,2,5,4,3.15384615384615,2,2,2,1, ,4,2,5, ,2,2,6,6,1, ,2,8,3,1,8,1,1, ,1, , , , , , , , , , ,4,4,4,4,4,4,4,7,3,2,4,4,4,4,2,4,4,4,3,1,1,4,5,5,2,5,4,4,3,2,2,2,1,1,1,2,3,2,4,1,2,4,3,4,3,4,3,1,3,2,2,1,2,1,4,4,3,2,1,4,4,1,1,4,1,1,1.76923076923077,2,3,3,1,1,1,1,2,3,1,2,5,1,2,36.4,36.7,2,36.55,1,1.66666666666667,5,1,.42495564977104,1.43590286904748,Oxford
1982,4,4,4,3,4,3,4,3,2,2,3,1,2,1,2,2,2.44444444444444,0,4.33333333333333,3.22222222222222,71,1.94444444444444, ,3.27272727272727,1,2,2,2,5,2,4,2,3,2,2,2,2,2,2,2,2,4,2,2,1,5,2,2,2,2,1,2,1,1,1,1,2,2,5,1,2,8:58:39,1.6,2,3,3,4,5,5,5,4,4,4,4,4,4,4,6,5,6,2,2,23,4.5,2.72727272727273,4,3,4,4,4,1,1,1,3,1,4,2,4,2,4,3,3,3,4,4,1,2,3,3,3,2,2,3,2,3,4,5,5,4,3.15384615384615,2,2,1,1, ,4,4,4,1,4,2,5,3,1, ,2,5,3,1,4,2,1, ,2,Graduate Student Committee, , , , ,5, , , , ,4,5,5,4,5,4,5,8,2,1,4,4,5,5,3,3,5,3,2,1,3,4,4,4,3,5,4,4,4,3,5,4,4,4,3,4,1,4,4,1,3,4,4,4,4,3,2,2,4,4,2,3,4,1,4,4,4,3,4,2,3,4,4,4,2,4,3.23076923076923,3,3,5,3,3,3,3,5,3,1,3,5,2,5,35.4,36.6,2,36,1,1.66666666666667,5,1,-.91140596160398,-1.19181845040461,Oxford
1984,3,4,2,4,4,3,4,4,4,4,3,2,2,2,4,3,2.72222222222222,0,3.44444444444444,1,71,4.94444444444444, ,3.54545454545455,1,2,2,2,2,3,3,1,4,2,5,2,2,3,1,5,2,5,3,5,5,5,5,5,5,5,5,5,4,5,6,5,5,5,5,4,5,8:55:53,2.6,2,1,2,4,4,4,4,3,3,3,3,3,2,2,1,2,1,1,1,7,4,1,1,1,1,1,1,1,1,1,1,1,1,1,1,1,1,1,1,1,1,1,1,2,3,5,3,4,2,2,3,3,2,2,3,3,2.84615384615385,1,2,1,1, ,4,1,4,1,4,1,3,2,1, ,2,8,1, , ,1,1, ,1, , , , , , , , , , ,6,4,4,3,3,4,3,7,1,3,3,3,4,3,2,2,3,5,4,4,1,1,4,5,2,2,1,3,4,3,4,2,3,3,3,2,4,4,3,2,2,4,1,1,3,2,4,3,3,2,2,2,1,2,3,4,2,2,2,4,4,2,3,3,2,3,4,4,4,5,4,4,4,4,4,4,4,4,4,3,4,36.2,36.9,2,36.55,1,1.66666666666667,5,1,-.672769959572727,1.48548251658431,Oxford
1991,2,2,1,2,1,4,4,2,2,2,2,3,2,2,3,2,3.88888888888889,0,2.77777777777778,2.66666666666667,71,3.55555555555556, ,2.18181818181818,1,5,2,5,5,5,6,1,4,2,4,2,4,2,5,7,4,6,1,4,2,6,5,2,2,4,4,5,2,3,3,1,5,6,5,1,4,8:55:21,2.4,2,2,3,2,3,4,4,3,2,3,2,2,4,4,3,2,3,1,2,26,2.66666666666667,2.81818181818182,2,4,2,4,2,2,3,4,4,2,2,3,4,2,4,1,1,4,1,4,2,3,3,3,3,3,2,2,5,4,4,3,3,2,3.07692307692308,2,2,4,1, ,4,4,5, ,3,2,5,4,1, ,2,3,2,1,4,3,1, ,2,Movie club,Pole dancing group, , , ,5,2, , , ,5,2,1,1,4,3,3,7,1,3,3,5,5,2,2,4,3,4,2,5,2,3,5,5,2,2,3,2,1,1,2,2,2,4,2,3,3,3,3,2,2,1,1,1,3,3,2,3,2,3,4,2,2,4,3,4,2,2,5,3,5,2,5,4,2,4,3,3,2,4,3,4,3,3,3,2,4,3,4,2,3,35.7,36.5,2,36.1,1,1.66666666666667,5,1,.329501248958539,.245991328163512,Oxford
1994,2,2,1,2,3,3,4,2,1,3,2,4,4,4,2,4,3.88888888888889,1,3.22222222222222,1,71,4.66666666666667,.5,2.27272727272727,1,5,3,5,5,5,6,3,5,4,3,3,2,3,2,6,4,3,3,7,4,5,3,6,6,5,5,5,3,4,5,3,5,5,2,6,5,8:50:49,3.6,2,0,4,4,4,4,4,4,2,2,3,2,4,4,3,2,2,1,3,10,5,1,1,1,1,1,1,1,1,1,1,1,1,1,1,1,1,1,1,1,1,1,2,2,2,1,1,2,3,3,2,3,2,2,2,2,2.07692307692308,2,1,2,1, ,4,2,5, ,2,1,4,4,1, ,2,8,1, , ,2,1, ,1, , , , , , , , , , ,5,5,5,5,6,4,4,6,1,1,2,3,5,4,2,2,4,1,2,1,1,3,4,3,4,3,4,3,3,4,4,4,3,3,3,4,2,3,4,2,4,1,3,2,3,2,5,4,2,1,1,1,1,2,3,2,2,2,4,4,3,2,4,2,4,1,2.30769230769231,2,2,3,2,2,4,2,2,2,2,2,3,3,2,35.3,35.9,2,35.6,1,1.66666666666667,5,1,.329501248958539,1.23758427890015,Oxford
1968,1,1,1,5,1,1,1,1,1,1,1,5,1,5,1,5,4,0,1.77777777777778,1,71,3.83333333333333, ,1.36363636363636,1,5,4,4,4,4,4,4,4,4,4,4,4,4,4,4,4,4,3,4,4,4,4,4,4,4,4,4,4,4,4,4,1,4,4,4,4,8:49:51,3.4,2,0,2,2,3,3,1,3,1,1,1,1,1,2,1,2,2,2,2,4,1,1,1,1,1,1,1,1,1,1,1,1,1,1,1,1,1,1,1,1,1,1,1,4,4,4,5,5,3,5,5,1,3,1,4,4,3.69230769230769,1,2,2,1, ,4,1,5, ,1, ,6,1,1, ,1, ,1, , ,1,1, ,1, , , , , , , , , , ,1,1,1,1,1,1,1,4,0,5,5,5,5,1,5,5,1,5,4,3,1,1,1,1,1,4,1,4,3,1,3,3,1,1,1,1,4,4,4,1,1,5,3,5,4,4,3,3,3,3,3,3,3,3,3,3,3,3,3,3,3,3,3,3,4,1,3,1,1,1,3,2,5,5,3,5,5,1,1,5,2,34.8,36.2,2,35.5,1,1.66666666666667,5,1,.42495564977104,.493889565847672,Oxford
1993,2,2,2,3,2,2,2,2,4,2,2,3,2,2,4,3,2,4,3.88888888888889,3.55555555555556,71,3.66666666666667, ,2.27272727272727,1,1,4,2,2,1,2,1,4,4,1,3,1,1,1,2,1,4,1,5,4,3,4,4,1,1,4,4,4,3,5,3,1,6,4,5,5,8:46:43,2.8,2,7,4,4,4,4,4,4,4,3,4,4,4,7,5,2,3,4,4,27,6.83333333333333,2.63636363636364,4,3,3,4,3,1,2,2,2,2,3,4,4,4,3,3,3,4,3,4,1,4,4,4,2,2,3,4,2,3,4,4,3,3,3.23076923076923,2,2,2,1, ,4,4,5, ,8,5,8,8,1, ,1, ,1, , ,2,1, ,2,hockey club, , , , ,8, , , , ,6,7,7,7,7,7,7,5,2,2,4,4,4,2,2,2,2,2,2,1,2,1,4,2,4,4,4,4,3,4,4,3,1,1,1,3,3,2,2,2,2,1,3,4,4,4,3,1,2,2,4,4,3,3,4,3,3,3,4,3,4,3,4,3,4,2,2.30769230769231,2,3,3,2,2,2,2,2,2,3,3,3,2,2,36.5,36.7,2,36.6,1,1.66666666666667,5,1,-1.29322356485399,.345150623237176,Oxford
1952,3,3,4,3,4,4,3,3,2,3,4,2,2,2,2,2,4.55555555555556,0,4.44444444444444,1,71,4.05555555555556, ,3.27272727272727,1,5,5,5,5,4,5,5,5,3,4,3,4,4,5,5,4,6,5,3,3,6,5,5,3,5,4,5,4,3,3,4,3,5,5,3,4,8:45:54,2,2,0,3,5,3,4,5,3,5,5,5,5,5,6,4,6,3,2,1,18,6,1.09090909090909,1,1,1,1,1,1,1,1,2,1,1,1,1,1,1,1,1,1,1,1,2,4,4,2,3,4,2,4,4,2,5,3,4,4,3.46153846153846,2,2,4,2,2,1, ,1, ,1, ,7,3,1, ,2,4,2,1,7,4,1, ,1, , , , , , , , , , ,7,5,5,5,7,7,7,6,0,3,3,3,5,2,2,2,5,2,1,3,3,3,5,4,3,3,4,3,3,4,3,3,3,3,4,4,1,2,2,1,4,2,4,4,4,3,4,2,3,3,4,2,3,4,1,4,3,3,3,3,3,3,3,3,1,3,3.53846153846154,5,3,4,3,3,3,3,5,3,3,4,5,2,5,35.3,36.4,2,35.85,1,1.66666666666667,5,1,.902227653833548,.692208155995,Oxford
1994,2,3,2,2,2,2,3,2,2,2,2,3,3,2,2,2,2.61111111111111,0,3.66666666666667,2.88888888888889,71,2.16666666666667, ,2.18181818181818,1,3,2,2,2,2,4,2,2,4,2,4,2,3,2,2,2,5,2,3,2,3,2,2,2,2,2,2,2,2,3,2,2,2,2,2,2,8:44:54,2.4,2,0,3,4,4,4,4,4,3,3,3,4,4,3,4,2,2,2,2,13,4.33333333333333,2.63636363636364,4,2,2,2,2,2,4,3,3,2,3,3,4,2,4,3,2,3,2,3,1,4,3,3,4,5,2,2,2,3,3,4,4,3,3.23076923076923,1,2,2,1, ,4,2,5, ,4,1,3,1,2,7,2,4,1, , ,1,1, ,1, , , , , , , , , , ,5,5,4,4,4,4,5,7,1,3,3,4,3,2,3,2,2,3,2,2,2,4,3,3,4,4,4,4,3,4,4,4,2,2,3,3,4,3,3,3,3,3,2,2,3,3,3,2,3,2,3,2,2,4,3,2,2,2,2,3,2,2,2,2,4,2,2.46153846153846,3,3,3,2,2,2,2,3,2,3,2,4,2,3,35.9,36.6,2,36.25,1,1.66666666666667,5,1,-.768224360385228,-.993499860257286,Oxford
1964,3,4,2,3,4,4,3,3,3,3,3,3,3,2,3,2,4.66666666666667,0,3,4.44444444444444,71,2.5, ,3.18181818181818,1,2,5,6,5,3,5,5,6,6,7,6,3,4,6,5,4,3,3,1,3,3,1,3,2,2,2,3,3,3,2,3,2,1,5,2,4,8:40:40,2.6,2,0,3,4,3,3,4,3,2,2,3,3,3,4,5,2,3,3,1,22,4.83333333333333,4.72727272727273,4,5,5,5,5,5,4,5,5,5,4,5,5,2,5,5,5,5,3,5,2,3,5,2,4,2,2,3,3,3,2,4,3,5,3.15384615384615,2,2,4,1, ,1, ,1, ,1, ,4,4,1, ,1, ,2,8,6,3,1, ,1, , , , , , , , , , ,6,4,4,5,5,5,4,4,0,2,4,4,4,2,3,4,4,3,2,1,2,3,1,3,4,4,3,4,3,4,4,1,2,2,3,3,3,3,3,3,3,2,1,3,3,5,3,3,3,2,4,3,3,4,3,4,3,3,3,3,4,4,4,3,2,2,2.69230769230769,3,3,3,4,3,2,2,2,2,2,3,3,3,3,34.8,36.5,4,35.65,1,1.66666666666667,5,1,.99768205464605,-.696021975036294,Oxford
1970,1,1,2,1,1,1,1,1,1,2,1,1,1,1,2,1,4.61111111111111,0,3.88888888888889,1.66666666666667,71,3.44444444444444, ,1.18181818181818,1,2,5,5,7,7,2,7,7,5,5,3,6,5,1,6,7,2,1,2,3,6,7,2,3,2,3,3,2,1,3,2,2,6,6,2,7,8:40:26,1.2,2,4,5,5,1,5,4,1,5,5,5,4,4,4,6,1,3,4,1,16,6.16666666666667,1.63636363636364,2,4,2,2,1,1,1,1,1,2,1,1,2,1,2,1,1,1,2,4,2,3,4,5,4,5,5,5,2,5,5,3,4,4,4.15384615384615,2,2,2,1, ,1, ,5, ,3,1,6,2,1, ,2,8,3,1,3,1,1, ,2,Cowley Chess Club, , , , ,7, , , , ,7,6,7,6,5,6,6,6,1,4,1,3,5,1,5,5,1,4,1,2,1,1,5,5,5,5,5,5,2,1,4,1,1,4,2,2,4,1,1,3,2,1,1,1,2,2,3,2,3,4,4,1,1,4,4,4,2,3,4,3,1,4,4,2,2,4,2.61538461538462,3,4,3,3,2,2,4,1,4,2,4,4,1,1,35.3,36.2,2,35.75,1,1.66666666666667,5,1,.949954854239798,.146832033089849,Oxford
1993,4,4,1,3,4,3,5,5,2,4,2,2,2,2,2,2,3.05555555555556,1,3.77777777777778,4.44444444444444,71,3,1,3.36363636363636,1,3,2,2,6,5,2,3,5,2,2,2,4,2,5,1,2,6,1,3,2,6,2,2,4,4,3,1,2,2,3,2,4,5,5,1,3,8:39:49,2,2,1,3,5,4,4,5,4,2,2,4,4,5,6,6,4,4,5,5,34,6.33333333333333,4.18181818181818,5,4,5,5,4,4,4,3,5,2,5,5,5,4,5,5,3,4,5,4,2,1,2,4,1,2,1,3,2,2,5,2,2,2,2.23076923076923,2,1,2,1, ,4,4,5, ,1, ,8,6,2,6,2,8,1, , ,5,1, ,2,Oxford University Dancesport Club - beginners competitive ballroom team,Oxford University Dancesport Club - salsa team, , , ,5,12, , , ,6,6,7,6,7,6,6,6,5,1,2,1,5,4,3,3,4,5,3,1,4,4,4,4,5,3,5,4,4,3,4,5,2,2,3,2,3,5,5,1,5,2,4,5,4,5,5,2,1,2,5,1,2,1,5,5,4,3,5,1,3,5,5,4,1,1,2.92307692307692,3,4,5,1,2,3,2,3,4,2,4,5,3,2,36.4,36.5,2,36.45,1,1.66666666666667,5,1,-.386406757135223,-.249805147204807,Oxford
1994,2,3,3,2,3,2,2,2,2,1,1,1,3,3,4,3,3,1,4.22222222222222,4.88888888888889,71,2.88888888888889, ,2.09090909090909,1,2,2,1,5,5,2,5,5,2,1,3,1,5,2,5,3,4,1,1,1,5,4,4,4,3,1,2,1,4,2,3,5,3,4,3,2,8:37:53,2.8,1,1,2,5,5,5,5,4,3,4,3,4,5,6,5,2,2,2,2,23,4.83333333333333,4.18181818181818,5,4,5,5,4,5,4,3,4,3,4,5,5,4,5,5,5,5,5,5,1,5,2,3,2,4,3,4,2,3,4,4,4,4,3.38461538461538,2,2,1,1, ,4,2,5, ,3,2,6,8,1, ,2,8,3,3,4,3,1, ,1, , , , , , , , , , ,6,5,5,4,4,5,6,7,3,4,4,4,4,3,3,4,4,5,4,1,3,2,4,5,5,4,3,4,4,3,4,3,2,2,3,4,3,4,4,3,4,3,5,5,5,5,3,1,5,3,3,4,2,2,4,5,3,4,4,2,5,5,5,5,1,1,2.76923076923077,3,5,4,2,1,1,2,3,2,2,5,5,1,5,36.7,33.9,2,35.3,1,1.66666666666667,5,1,-.434133957541473,-.348964442278471,Oxford
1964,1,2,1,2,1,1,1,2,2,1,2,1,2,4,5,2,3.55555555555556,0,4.33333333333333,3,71,3.77777777777778, ,1.45454545454545,1,2,4,4,5,6,2,2,4,2,2,2,3,5,5,4,6,2,4,5,5,5,3,4,5,4,3,3,3,5,4,2,3,3,6,2,3,8:36:39,2.8,2,1,4,5,3,4,5,3,5,5,5,4,5,7,5,2,2,2,3,66,4.66666666666667,3,3,3,3,3,3,3,3,3,3,3,3,3,3,3,3,3,3,3,3,3,1,3,4,2,2,3,3,4,2,2,4,3,2,4,2.92307692307692,1,2,2,1, ,1, ,5, ,1, ,8,8,2,8,2,8,1, , ,6,2,8,2,church,drop-in,class,community support,health etc discussions,7,7,7,7,7,3,5,5,5,5,5,5,7,5,2,2,4,4,1,3,2,2,2,2,2,2,2,5,2,3,4,4,3,3,3,2,3,2,3,2,4,2,2,2,2,2,2,2,2,4,2,4,2,4,3,4,2,1,4,2,1,1,1,2,2,1,2,1,2,5,5,2.23076923076923,2,3,4,1,1,1,3,3,1,3,3,3,1,3,35.3,35.3,2,35.3,1,1.66666666666667,5,1,.0431380465210342,.44430991831084,Oxford
1995,5,5,2,3,4,3,4,5,3,4,4,1,2,2,3,2,5.33333333333333,3,4.22222222222222,3.88888888888889,71,2.11111111111111,8,3.81818181818182,1,7,6,6,5,7,6,5,4,6,5,6,5,3,3,6,6,7,3,3,2,3,2,2,3,2,2,2,1,1,2,2,3,2,1,2,3,8:30:51,2,2,0,2,4,4,4,5,5,4,3,4,5,5,6,6,5,5,6,6,17,3.83333333333333,3.90909090909091,4,4,5,4,5,2,2,4,5,3,5,4,4,3,5,3,4,4,3,5,2,1,3,2,2,2,2,1,1,2,3,1,3,2,1.92307692307692,2,1,2,1, ,4,4,5, ,3,3,8,8,1, ,2,8,1, , ,1,1, ,1, , , , , , , , , , ,3,5,3,5,4,3,3,6,3,3,4,3,5,3,4,4,4,5,2,2,3,4,4,3,4,5,4,4,4,4,4,4,3,4,4,3,2,4,4,2,4,3,3,4,4,5,2,3,4,4,2,4,4,2,4,4,4,4,5,2,5,4,3,4,5,3,3.46153846153846,4,4,5,2,3,3,3,4,3,3,4,5,3,4,37,36.8,2,36.9,1,1.66666666666667,5,1,1.57040845952106,-1.04307950779412,Oxford
1995,2,4,1,2,2,2,4,5,1,2,1,1,3,2,4,1,4.33333333333333,0,4.22222222222222,3,71,4.33333333333333,3,2.36363636363636,1,4,4,4,4,4,6,4,6,4,4,6,4,4,2,5,4,5,4,4,4,4,7,7,4,4,4,4,4,4,4,4,4,4,4,4,4,8:28:13,2.2,2,0,3,4,4,4,2,4,5,5,5,5,3,4,4,3,2,2,4,15,5.66666666666667,3,3,3,3,3,3,3,3,3,3,3,3,3,3,3,3,3,3,3,3,3,2,2,2,2,1,2,2,1,2,2,2,4,2,2,2,1,1,2,1, ,4,4,5, ,3,2,8,6,1, ,2,8,1, , ,2,1, ,1, , , , , , , , , , ,7,6,5,5,5,6,7,6,3,2,3,4,4,1,2,1,3,4,3,2,1,1,5,5,3,2,2,3,4,2,3,4,3,2,3,2,4,4,2,3,4,2,1,1,1,1,1,3,4,2,2,3,1,5,3,4,2,2,4,1,4,3,4,2,2,2,3.46153846153846,2,5,3,2,3,4,3,4,4,4,3,2,4,4,34.7,36.6,4,35.65,1,1.66666666666667,5,1,.711318852208545,.940106393679159,Oxford
1994,4,4,2,4,4,3,4,4,3,2,4,1,4,2,2,2,6,0,3.55555555555556,3.11111111111111,71,3.77777777777778,12,3.45454545454545,1,7,7,7,7,2,7,7,7,7,5,6,4,6,5,7,6,7,4,5,3,2,4,6,4,5,5,4,2,3,3,2,5,5,3,3,4,8:27:10,2.2,2,0,2,3,4,3,2,4,4,4,4,4,5,4,1,2,2,3,4,13,4.33333333333333,3.09090909090909,5,5,4,4,2,2,2,3,4,1,2,2,4,3,5,2,1,4,2,5,2,2,5,1,1,2,4,3,2,4,5,1,3,2,2.69230769230769,2,1,4,1, ,4,4,5, ,4,1,6,6,1, ,2,8,1, , ,1,1, ,1, , , , , , , , , , ,6,4,3,3,5,5,4,6,3,3,3,4,4,2,2,2,2,4,2,2,3,4,5,5,3,3,4,3,4,2,3,3,3,4,3,4,2,4,2,2,2,2,2,3,4,5,5,2,3,4,2,2,3,3,4,4,2,3,4,5,3,2,4,4,2,3,3.38461538461538,4,5,5,3,3,2,3,3,2,3,4,5,2,5,34.7,36.7,2,35.7,1,1.66666666666667,5,1,2.14313486439607,.44430991831084,Oxford
1995,5,4,1,4,5,4,4,4,5,5,3,1,2,3,2,2,1.94444444444444,0,4.33333333333333,2.77777777777778,71,3.77777777777778, ,4,1,1,1,1,1,1,4,1,1,7,5,1,1,1,1,5,1,1,1,5,3,6,2,3,6,7,1,2,1,3,2,2,7,7,2,2,7,8:26:53,2,2,0,3,4,5,5,5,5,5,2,4,4,5,7,6,3,6,4,6,29,6.33333333333333,2.63636363636364,4,4,2,5,1,1,4,4,1,1,2,4,4,2,4,2,2,2,1,4,2,1,2,2,1,1,2,1,1,4,3,2,2,1,1.76923076923077,2,2,2,1, ,4,4,5, ,8,1,7,7,1, ,2,8,1, , ,2,1, ,2,Boat club,Committee, , , ,9,12, , , ,6,7,5,6,7,7,6,6,3,3,3,4,5,1,4,2,2,5,2,2,5,3,2,4,3,5,5,5,5,4,2,5,5,1,5,1,4,4,3,4,3,5,4,5,5,4,3,2,4,2,4,5,5,1,4,4,4,4,4,1,4,4,4,1,2,4,3.30769230769231,2,3,5,3,3,2,3,4,3,4,3,5,4,4,36.4,36.8,2,36.6,1,1.66666666666667,5,1,-1.34095076526024,.44430991831084,Oxford
1990,4,5,4,5,4,4,4,4,3,4,2,2,3,3,4,3,5.66666666666667,7,4.44444444444444,3.66666666666667,71,3.5, ,3.90909090909091,1,7,7,7,7,6,7,5,7,1,5,7,5,5,3,7,7,7,2,7,2,6,2,2,2,3,5,6,3,3,3,2,3,3,3,2,6,8:26:20,3,2,4,1,4,4,4,4,4,5,5,5,5,4,6,5,6,4,5,1,33,5.5,3.45454545454545,4,4,4,4,3,2,3,4,4,2,4,4,4,2,4,4,3,4,4,4,1,1,3,3,1,1,1,1,1,1,1,2,2,1,1.46153846153846,2,2,2,1, ,4,4,5, ,1, ,1,1,2,1,2,8,3,1,5,1,1, ,2,cheerleading,rowing,choir, , ,20,5,10, , ,7,4,4,4,7,7,7,7,2,1,4,1,5,5,3,4,5,4,4,1,1,3,4,4,5,5,5,3,1,2,2,1,2,2,2,4,1,4,5,1,1,4,4,4,2,5,2,2,4,3,3,4,4,1,1,5,5,5,2,4,3,2,1,3,1,1,4.15384615384615,1,5,5,5,5,5,1,5,5,5,4,5,3,5,35.6,36.6,2,36.1,1,1.66666666666667,5,1,1.85677166195856,.19641168062668,Oxford
1990,2,2,1,3,2,2,2,2,2,2,2,2,2,4,4,3,1.44444444444444,0,4.44444444444444,2.22222222222222,71,2.05555555555556, ,2,1,1,1,1,1,1,2,1,2,1,1,1,1,1,2,2,1,5,1,2,2,2,2,2,2,2,7,1,2,2,1,1,2,1,2,3,1,8:08:54,3,2,3,5,4,5,4,5,5,4,4,5,4,2,2,1,1,2,2,1,10,2.16666666666667,1.45454545454545,2,2,2,2,1,1,1,1,1,1,2,1,4,1,4,2,1,2,4,1,1,2,4,5,4,4,3,3,4,4,4,3,4,3,3.61538461538462,1,2,2,1, ,4,4,4,1,1, ,2,2,1, ,2,8,1, , ,2,1, ,1, , , , , , , , , , ,3,3,2,2,1,2,2,6,2,4,2,4,4,1,2,2,2,2,1,2,2,3,4,5,3,3,2,3,3,2,3,3,1,1,1,4,4,2,2,4,2,3,1,2,4,4,1,2,2,3,2,2,1,5,3,2,1,1,2,2,1,1,1,2,2,1,1.92307692307692,4,2,2,1,2,2,2,2,1,2,1,4,3,1,34.6,36.2,2,35.4,1,1.66666666666667,5,1,-1.77049556891649,-1.09265915533095,Oxford
1989,4,5,2,3,2,3,4,3,5,4,4,3,3,3,5,3,3.61111111111111,0,4.44444444444444,4.44444444444444,71,3.05555555555556, ,3.54545454545455,1,4,3,3,4,4,3,4,3,3,3,3,5,7,2,3,3,4,4,3,3,3,3,2,4,4,3,4,4,3,2,3,5,3,2,2,2,8:06:22,3.4,2,0,3,5,4,4,5,4,4,4,5,5,3,4,3,3,2,3,3,12,5.33333333333333,3.81818181818182,4,3,4,4,4,4,2,4,5,4,4,5,4,4,4,4,4,5,5,5,1,2,1,2,4,3,2,1,4,2,2,4,3,1,2.38461538461538,1,2,2,1, ,4,4,4,1,6,2,3,3,1, ,2,2,1, , ,1,1, ,1, , , , , , , , , , ,5,6,6,5,5,5,3,7,1,4,4,2,4,3,4,4,2,4,2,2,1,2,4,4,3,4,3,4,4,4,4,3,3,4,4,2,2,4,4,4,4,5,3,4,4,3,4,4,4,3,4,4,3,3,3,4,4,3,4,4,4,2,2,3,3,4,3.23076923076923,4,3,4,2,3,2,4,4,4,2,3,4,4,3,35.8,36.6,2,36.2,1,1.66666666666667,5,1,.0908652469272851,-.200225499667975,Oxford
1972,2,2,1,2,1,2,1,1,1,2,1,2,2,2,4,2,4.22222222222222,0,4.33333333333333,1,71,4.05555555555556, ,1.45454545454545,1,2,4,6,7,4,5,3,5,4,5,2,6,2,4,2,7,4,4,3,5,5,2,3,2,2,5,4,7,4,7,5,1,2,4,6,6,8:05:31,2.4,2,3,3,5,5,4,5,5,4,3,4,4,5,7,4,4,5,2,6,39,2,1.81818181818182,4,1,4,1,1,1,1,1,1,1,4,1,1,1,1,1,1,1,1,1,1,4,2,2,3,1,1,1,1,2,2,4,4,3,2.30769230769231,2,2,1,4,4,2,2,1, ,8,4,7,3,1, ,1, ,3,1,4,8,2,4,2,Forest school,aikido, , , ,3,5, , , ,3,1,2,2,2,2,3,8,2,1,4,4,4,2,4,4,1,4,3,1,4,4,4,4,4,4,4,2,3,4,2,3,3,3,5,2,3,4,4,2,1,2,2,1,3,2,2,2,2,1,5,1,1,3,2,2,2,2,4,1,1,1,4,1,1,4,2.30769230769231,4,2,2,3,3,2,2,3,2,2,1,3,2,2,35.7,36.9,2,36.3,1,1.66666666666667,5,1,.615864451396043,.692208155995,Oxford
1997,3,4,1,4,4,2,3,4,3,4,2,1,1,4,5,2,3.05555555555556,0,3.77777777777778,2.66666666666667,71,4, ,3.09090909090909,1,4,1,2,4,2,5,1,7,2,1,6,2,2,2,5,1,7,1,3,2,6,7,5,1,6,4,4,2,3,1,2,5,7,6,5,3,7:59:40,2.6,2,4,4,5,2,5,4,2,3,4,5,4,3,3,2,2,2,1,2,17,4.66666666666667,2.09090909090909,2,2,2,2,1,1,1,4,2,4,2,4,4,1,4,2,2,3,2,2,1,2,4,4,4,4,1,4,2,3,3,3,4,2,3.07692307692308,1,2,2,1, ,2,2,5, ,1, ,4,3,2,8,2,8,1, , ,3,1, ,1, , , , , , , , , , ,6,3,2,3,7,7,7,6,2,1,2,2,5,5,2,2,3,3,1,1,2,3,4,4,3,2,2,4,1,3,4,2,3,4,2,4,1,2,4,1,5,3,2,2,3,4,2,1,4,3,1,4,1,1,3,3,1,1,4,3,4,1,4,4,2,1,2.61538461538462,2,2,3,2,2,2,2,3,2,3,5,5,3,3,35,36.5,2,35.75,1,1.66666666666667,5,1,-.386406757135223,.642628508458168,Oxford
1994,2,2,4,2,2,2,2,2,3,2,2,2,2,2,3,2,3.22222222222222,0,4.11111111111111,2.77777777777778,71,3.16666666666667, ,2.27272727272727,1,3,4,3,3,3,5,1,2,3,3,3,3,3,5,3,5,3,3,4,3,3,3,3,3,3,3,3,3,3,4,3,3,3,4,3,3,7:57:10,2.2,2,240,3,4,4,4,4,4,5,4,4,4,4,5,5,3,3,3,1,11,5,2.81818181818182,4,4,2,4,2,2,2,2,3,2,4,2,3,2,4,2,2,4,2,4,1,4,4,4,4,4,2,4,3,3,5,3,4,4,3.69230769230769,2,2,2,1, ,4,4,5, ,2,1,4,2,1, ,2,5,1, , ,3,1, ,1, , , , , , , , , , ,5,5,5,5,5,5,5,6,2,3,4,4,4,2,2,2,2,4,2,2,3,3,4,4,2,4,4,4,4,3,4,4,2,2,4,2,4,4,3,4,2,2,4,4,4,4,2,3,3,3,4,4,4,3,4,4,4,4,4,2,5,2,3,3,2,4,3,3,4,4,3,2,2,3,3,3,3,4,4,2,3,35,36.6,2,35.8,1,1.66666666666667,5,1,-.24322515591647,-.101066204594311,Oxford
1991,2,2,1,2,2,2,2,3,3,2,2,1,1,4,4,2,2.94444444444444,0,2.44444444444444,1.11111111111111,71,5.16666666666667, ,2.09090909090909,1,2,3,4,3,2,1,3,6,4,3,5,2,5,2,2,2,2,2,3,6,6,3,6,3,3,6,5,6,4,7,5,6,7,5,6,6,7:56:54,2.4,2,3,3,2,4,3,2,2,1,2,3,3,1,2,1,2,2,2,2,16,4.83333333333333,1.81818181818182,2,3,2,2,2,2,1,1,2,1,2,1,2,1,1,1,1,1,1,1,2,4,5,4,4,5,1,3,4,4,4,4,4,4,3.84615384615385,1,2,2,1, ,4,1,5, ,5,1,1,1,1, ,2,8,1, , ,5,1, ,2,Sports, , , , ,7, , , , ,7,3,4,5,4,6,5,6,2,2,4,4,4,1,1,2,2,4,3,5,2,4,5,4,3,2,4,4,2,2,4,2,2,3,2,2,4,4,1,3,2,4,1,4,5,4,4,1,2,4,4,2,2,4,4,2,2,2,3,4,1,2,3,2,5,2,2.61538461538462,4,3,2,2,4,1,3,2,4,2,2,5,2,3,35.7,36.1,2,35.9,1,1.66666666666667,5,1,-.481861157947724,1.68380110673164,Oxford
1990,2,3,1,1,2,2,3,1,1,2,1,1,1,1,3,2,1.5,0,4.66666666666667,3,71,1.66666666666667, ,1.72727272727273,1,1,1,1,5,1,1,1,1,1,1,1,1,6,1,1,1,1,1,1,1,1,2,2,2,2,1,2,1,1,3,2,2,2,2,2,1,7:56:05,1.6,2,2,4,5,5,5,5,4,5,5,4,4,4,5,5,2,3,1,1,21,4.5,2.63636363636364,4,4,4,4,4,1,1,1,1,1,4,3,3,2,4,3,2,4,2,4,1,3,5,3,4,4,3,3,3,4,4,4,4,3,3.61538461538462,2,2,2,1, ,4,2,5, ,2,2,6,2,1, ,2,8,1, , ,3,2,1,2,OUSU,Chapel Choir, , , ,9,3, , , ,5,4,4,4,5,5,5,7,2,2,5,5,5,4,1,3,3,5,3,1,4,2,4,3,5,4,4,4,3,4,4,4,1,1,2,1,5,4,3,2,2,3,2,3,5,1,3,1,1,4,4,1,3,2,4,4,3,3,4,2,5,4,5,3,1,4,2.30769230769231,2,4,3,2,2,1,3,2,2,2,4,5,1,2,35.5,36.4,2,35.95,1,1.66666666666667,5,1,-1.72276836851024,-1.43971668808877,Oxford
1967,2,2,2,2,2,2,3,2,2,2,2,3,2,5,2,2,1.88888888888889,0,3.55555555555556,1.55555555555556,74,2.16666666666667, ,2.09090909090909,1,2,2,1,2,1,2,2,2,2,2,2,2,2,2,2,2,2,2,2,1,3,2,2,1,2,2,2,2,2,2,2,2,4,4,2,2,9:32:11,2.8,1,1,3,4,3,4,3,3,4,4,4,3,5,4,5,2,2,4,2,22,3,1.09090909090909,2,1,1,1,1,1,1,1,1,1,1,1,3,1,3,1,1,1,1,2,2,3,4,4,3,4,3,1,2,2,4,4,3,2,3,2,2,5,1, ,2,2,2,2,8,3,8,6,2,1,1, ,1, , ,3,2,4,1, , , , , , , , , , ,6,3,3,2,2,2,3,8,2,2,4,4,4,3,3,3,3,4,2,2,3,4,3,4,3,4,4,3,3,4,4,4,2,2,2,3,3,4,4,1,2,4,2,2,2,2,3,2,2,2,4,1,2,2,3,3,2,3,4,3,3,4,3,3,2,2,2.30769230769231,3,3,2,2,2,2,2,3,2,2,2,3,2,3,36.3,36,2,36.15,1,2.77777777777778,5,1,-1.38867796566649,-.993499860257286,Oxford
1953,4,2,4,3,4,4,4,2,3,2,4,2,2,2,4,2,2.88888888888889,0,3.11111111111111,1,74,5.27777777777778,10,3.27272727272727,1,4,1,1,1,1,3,2,4,6,5,1,2,5,4,1,4,6,1,6,5,6,6,5,6,6,5,7,3,4,7,5,6,3,5,4,6,9:16:12,2.4,2,0,3,4,3,4,2,2,3,3,4,3,5,6,4,5,5,5,5,7,3.16666666666667,2.27272727272727,4,4,3,2,3,1,1,1,3,1,2,1,1,1,1,1,1,1,1,1,2,2,5,4,2,4,2,4,4,5,4,4,4,4,3.69230769230769,1,1,3,3,2,4,1,1, ,1, ,3,2,1, ,1, ,1, , ,1,1, ,1, , , , , , , , , , ,4,4,3,2,4,2,3,5,0,1,4,1,5,1,4,5,5,1,2,2,4,2,5,5,4,4,4,3,1,3,3,1,3,5,3,5,1,1,4,1,5,3,5,5,4,4,4,1,3,4,2,2,2,5,2,5,2,4,2,4,5,2,4,5,1,1,2.53846153846154,3,3,3,2,2,2,2,3,3,2,3,4,2,3,35.6,36.4,2,36,1,2.77777777777778,5,1,-.529588358353975,1.7829604018053,Oxford
1992,2,2,2,1,2,3,2,2,2,2,2,2,2,2,3,2,2.33333333333333,0,4,2.22222222222222,74,2.66666666666667, ,2,1,2,2,2,2,2,2,2,2,2,2,6,2,2,2,4,2,2,2,2,3,2,2,3,2,1,3,2,4,4,5,2,2,3,4,2,2,9:12:54,2.2,2,0,2,4,4,4,4,4,4,4,4,4,3,4,4,2,2,3,2,15,3.66666666666667,2.09090909090909,3,2,2,2,2,2,2,2,2,2,2,2,2,2,2,2,2,2,2,4,2,3,4,5,5,5,1,5,3,5,5,5,5,5,4.30769230769231,1,2,2,1, ,1, ,1, ,2,4,3,2,2,2,2,6,3,1,4,1,1, ,1, , , , , , , , , , ,3,4,4,4,4,3,3,7,2,2,4,4,4,4,2,4,4,4,2,2,3,4,4,3,4,4,4,4,3,4,4,4,2,2,3,4,2,3,2,2,4,4,2,4,4,4,4,2,4,3,4,4,2,2,4,2,2,2,2,2,2,2,4,4,2,2,2,1,1,3,2,2,1,3,3,1,3,3,5,1,2,35.1,36.1,2,35.6,1,2.77777777777778,5,1,-1.00686036241648,-.547283032425799,Oxford
1996,5,4,4,2,2,2,2,2,4,2,2,1,4,1,4,2,5.94444444444444,0,4.11111111111111,4.33333333333333,74,3.44444444444444, ,2.81818181818182,1,7,7,7,6,6,5,7,7,7,5,7,6,7,4,5,5,6,3,6,3,3,6,5,3,3,3,5,5,2,3,2,3,2,2,2,4,9:09:27,2.4,2,2,2,5,4,4,4,4,4,4,4,4,5,6,5,5,3,6,6,16,5.5,3.18181818181818,2,2,3,3,2,5,4,4,3,3,4,5,5,4,4,5,5,5,2,4,2,2,2,2,2,4,1,2,2,3,3,3,4,4,2.61538461538462,1,2,2,1, ,2,2,5, ,5,2,8,8,2,1,2,6,1, , ,2,1, ,1, , , , , , , , , , ,6,5,6,6,5,5,5,7,3,2,3,4,4,3,2,4,5,5,2,1,3,4,5,3,4,4,5,5,5,3,5,4,2,2,2,2,3,5,5,5,4,3,4,2,4,4,5,4,3,5,4,5,3,2,4,5,5,4,4,3,5,4,4,4,1,1,2.61538461538462,2,2,4,2,3,2,3,3,2,2,4,5,2,3,35.3,36.4,2,35.85,1,2.77777777777778,5,1,2.09540766398982,.146832033089849,Oxford
1963,1,4,1,1,2,2,2,1,3,1,1,3,3,1,2,3,4.27777777777778,0,3.88888888888889,1.66666666666667,74,4.61111111111111, ,1.72727272727273,1,4,4,4,4,4,4,4,4,5,4,3,4,4,6,4,7,4,4,5,6,4,4,4,6,7,4,4,3,4,5,4,6,4,4,5,4,9:09:16,2.4,1,0,4,5,5,5,5,5,3,3,3,1,5,6,6,5,5,5,5,24,4.83333333333333,2.81818181818182,4,1,4,4,4,2,1,1,2,4,4,1,1,1,2,4,2,1,2,1,2,5,2,2,4,4,3,3,5,1,4,5,2,3,3.30769230769231,2,2,4,2,2,1, ,5, ,8,2,8,4,1, ,1, ,3,1,8,1,1, ,2,Dance group, , , , ,5, , , , ,5,7,5,4,4,4,5,6,1,2,1,1,5,4,1,2,4,1,3,4,2,2,3,4,5,3,4,2,4,4,2,3,3,2,3,5,1,4,4,1,5,4,1,4,4,3,4,3,2,5,2,2,1,1,1,2,2,2,2,4,3,2,3,3,5,1,2.61538461538462,1,3,3,2,3,2,3,3,3,2,4,4,2,3,36.3,36.6,2,36.45,1,2.77777777777778,5,1,.663591651802294,1.18800463136332,Oxford
1952,2,2,2,4,2,2,2,3,2,2,2,2,2,3,3,2,3.94444444444444,3,3.88888888888889,2.55555555555556,74,2.72222222222222, ,2.27272727272727,1,3,5,4,5,6,5,5,2,5,4,5,3,3,3,4,4,3,2,3,2,4,2,3,2,2,3,2,2,3,3,2,2,3,3,3,5,9:04:40,2.4,2,1,3,4,3,4,4,3,4,5,4,4,4,4,2,3,2,2,2,29,4.83333333333333,3.09090909090909,4,4,4,3,4,2,2,2,4,2,3,3,4,1,4,2,2,2,3,2,1,2,4,1,2,2,2,2,3,4,4,2,3,2,2.53846153846154,1,2,5,2,2,1, ,1, ,1, ,3,1,1, ,1, ,1, , ,2,1, ,2,badminton,bridge 1,bridge 2,bridge 3,badminton 2,12,5,6,1,4,5,4,5,5,5,5,5,5,0,2,4,3,4,3,2,2,3,2,2,3,4,4,4,3,4,4,3,4,3,3,4,3,2,3,2,3,2,2,2,2,2,3,2,3,2,3,2,2,4,2,4,2,2,2,2,2,3,4,3,2,4,3,2,2,3,2,3,3,4,3,3,4,3,3,3,3,3,3,2,2,2,34.8,36,2,35.4,1,2.77777777777778,5,1,.37722844936479,-.497703384888966,Oxford
1959,4,4,4,4,5,4,4,3,3,4,2,1,4,2,2,3,4.16666666666667,0,3.77777777777778,3.11111111111111,74,4.05555555555556, ,3.72727272727273,1,5,4,4,4,4,4,4,4,4,4,4,4,4,4,4,4,6,4,5,4,4,4,4,4,4,4,4,4,4,4,4,4,4,4,4,4,9:04:38,2.4,2,1,1,4,4,4,4,4,3,3,4,4,4,6,6,6,4,5,4,26,7,3,3,3,3,3,3,3,3,3,3,3,3,3,3,3,3,4,2,3,4,3,2,2,2,3,2,2,1,1,2,1,3,1,2,1,1.76923076923077,1,2,4,2,2,4,4,5, ,2,2,6,6,1, ,1, ,1, , ,8,1, ,2,cricket club, , , , ,3, , , , ,7,7,7,7,7,7,6,6,3,4,4,3,5,3,3,3,3,2,3,1,3,3,4,4,4,3,3,3,3,4,3,3,3,3,3,4,3,3,5,3,4,4,3,5,4,4,4,4,3,3,3,2,3,2,3,4,3,3,3,3,3,4,3,3,2,3,3.30769230769231,3,3,4,3,2,4,4,4,4,4,2,4,3,3,35,36.5,2,35.75,1,2.77777777777778,5,1,.568137250989793,.692208155995,Oxford
1994,5,4,1,5,4,2,4,5,2,4,2,2,4,3,5,2,3.44444444444444,0,3.44444444444444,2.55555555555556,74,4.83333333333333, ,3.45454545454545,1,5,4,5,4,4,2,4,4,4,3,3,2,4,4,2,2,4,2,7,6,7,4,6,6,5,6,6,3,2,5,3,6,4,6,3,2,9:02:11,3.2,2,0,3,5,5,5,5,4,1,1,1,4,5,5,4,1,2,5,1,41,5.33333333333333,1.54545454545455,2,1,3,3,2,1,1,1,1,1,1,1,4,4,4,1,1,3,1,4,1,1,1,3,1,4,1,1,1,4,3,2,3,1,2,2,2,2,1, ,4,4,5, ,6,1,8,8,1, ,2,8,1, , ,5,2,6,2,University,Volunteer,Neighbors, , ,7,5,4, , ,4,5,5,7,4,7,4,7,5,2,4,4,4,3,2,1,3,5,3,2,4,3,5,4,5,5,4,3,3,3,2,4,2,2,2,3,3,5,5,2,4,5,1,1,5,1,4,3,2,3,2,3,4,2,5,4,5,5,5,2,5,4,4,4,1,5,2.69230769230769,3,2,2,2,2,2,2,3,3,5,3,4,3,3,35.6,37,2,36.3,1,2.77777777777778,5,1,-.052316354291467,1.38632322151065,Oxford
1991,1,1,1,2,3,1,1,2,1,1,1,3,3,2,1,2,2.27777777777778,0,3.77777777777778,1.44444444444444,74,2.05555555555556, ,1.36363636363636,1,4,1,2,1,2,4,1,2,2,2,2,2,2,4,2,4,2,2,2,2,2,2,1,1,2,2,2,2,2,2,2,2,3,2,2,4,8:59:46,2.2,2,1,3,4,3,4,4,4,4,4,4,3,2,5,5,4,4,2,4,14,5.83333333333333,1.27272727272727,4,1,1,1,1,1,1,1,1,1,1,1,2,1,2,1,1,1,1,3,2,4,5,5,5,5,1,1,3,3,4,4,4,2,3.53846153846154,2,2,2,1, ,3,3,5, ,2,2,6,6,1, ,2,8,1, , ,2,1, ,1, , , , , , , , , , ,7,5,5,5,6,7,6,6,3,1,5,3,3,4,4,2,2,3,3,1,2,4,4,3,4,5,5,4,4,3,3,3,3,3,3,3,3,3,3,2,5,4,4,2,4,3,4,3,2,2,2,2,4,1,4,4,4,3,3,4,4,2,2,3,1,3,2.30769230769231,2,1,4,3,2,2,3,3,2,3,1,4,2,2,34,36.2,2,35.1,1,2.77777777777778,5,1,-1.05458756282273,-1.09265915533095,Oxford
1994,2,2,1,2,2,2,2,2,2,2,2,3,2,2,3,2,2.44444444444444,0,4.44444444444444,2.44444444444444,74,3.33333333333333, ,1.90909090909091,1,2,2,2,2,2,4,2,2,4,2,4,2,2,2,2,2,4,2,2,4,2,4,2,2,2,4,4,4,4,4,4,2,4,4,4,4,8:59:43,2.4,2,0,3,4,5,5,5,5,5,5,3,3,5,5,4,4,4,2,3,23,4,2.63636363636364,3,3,3,2,3,2,3,2,3,2,3,2,3,2,3,2,2,3,2,3,2,4,4,5,5,3,4,3,3,4,3,4,5,4,3.92307692307692,2,2,2,1, ,4,4,5, ,7,4,7,7,2,3,2,7,1, , ,4,1, ,1, , , , , , , , , , ,3,5,4,4,4,4,4,7,3,2,2,3,4,5,3,3,4,4,2,2,1,4,3,3,3,2,3,3,3,2,3,4,2,2,2,3,2,2,4,2,4,2,2,3,3,3,2,2,2,4,2,4,1,2,3,4,2,2,3,3,3,2,3,3,3,3,2.53846153846154,2,2,3,3,2,2,2,3,3,3,2,3,4,2,36.2,36.7,2,36.45,1,2.77777777777778,5,1,-.91140596160398,.0476727380161848,Oxford
1976,1,2,2,2,4,2,3,2,3,2,4,3,5,3,3,4,3.38888888888889,0,4.44444444444444,1.66666666666667,74,3.94444444444444,15,2.45454545454545,1,3,2,5,5,5,2,5,1,5,2,7,4,5,2,2,2,2,2,2,6,6,2,4,2,2,4,2,5,6,6,4,2,5,6,2,5,8:59:28,3.6,2,0,4,5,4,5,5,4,4,5,4,4,3,2,1,2,2,1,1,9,2,1.81818181818182,1,1,1,2,2,1,4,4,1,2,1,1,2,2,1,2,1,4,1,1,2,2,1,1,2,1,2,1,2,3,2,2,3,1,1.76923076923077,1,1,2,1, ,3,1,5, ,1, ,4,4,1, ,1, ,1, , ,3,1, ,1, , , , , , , , , , ,2,2,2,2,2,2,2,4,0,2,3,3,4,4,1,2,4,3,2,2,1,2,5,5,2,4,4,4,1,2,2,1,2,5,3,4,2,2,4,1,5,2,2,4,4,4,3,3,4,4,4,1,1,1,2,5,2,3,2,4,2,3,3,4,1,1,2.76923076923077,3,2,2,3,4,3,3,3,2,4,1,2,2,4,35.5,37,2,36.25,1,2.77777777777778,5,1,-.100043554697718,.593048860921336,Oxford
1972,2,2,4,3,3,4,3,3,2,4,3,3,2,4,2,3,4.16666666666667,40,4,3.77777777777778,74,3, ,3,1,4,4,4,5,4,3,4,5,4,4,4,4,4,4,4,5,5,4,4,3,3,3,2,3,3,3,3,3,3,3,3,3,3,3,3,3,8:56:11,2.8,2,21,1,4,4,4,4,4,4,4,4,4,5,6,3,4,4,1,1,28,2,1.36363636363636,2,2,1,1,1,2,2,1,1,1,1,3,5,3,5,3,3,3,4,5,2,3,3,5,3,2,4,3,3,3,3,5,5,3,3.46153846153846,2,2,3,2,2,4,2,5, ,4,1,8,5,1, ,1, ,3,1,8,1,1, ,2,choir, , , , ,7, , , , ,2,2,2,2,2,2,2,7,2,1,1,1,5,3,3,3,5,1,1,1,2,4,4,3,3,4,4,4,3,4,3,3,2,2,2,5,1,1,5,1,5,4,4,4,4,4,4,2,3,4,2,4,3,3,4,4,3,3,4,3,2,4,3,4,2,2,3.07692307692308,4,3,2,3,2,2,4,4,3,4,4,2,2,3,36.4,36.9,2,36.65,1,2.77777777777778,5,1,.568137250989793,-.249805147204807,Oxford
1968,3,3,3,3,3,3,3,3,3,3,3,3,3,3,3,3,4,0,2.22222222222222,2.55555555555556,74,4, ,3,1,4,4,4,4,4,4,4,4,4,4,4,4,4,4,4,4,4,4,4,4,4,4,4,4,4,4,4,4,4,4,4,4,4,4,4,4,8:54:46,3,2,0,2,1,3,4,3,3,3,1,1,1,1,1,1,1,1,1,2,4,3,3,3,3,3,3,3,3,3,3,3,3,3,3,4,3,3,1,3,1,1,4,1,4,3,4,5,4,4,4,1,1,2,5,4,3,3.38461538461538,1,2,2,1, ,4,1,5, ,1, ,5,1,1, ,2,1,1, , ,1,1, ,1, , , , , , , , , , ,1,4,4,4,4,1,1,5,0,4,4,5,4,1,4,4,2,5,4,3,3,3,3,3,3,3,3,3,3,3,3,3,3,3,3,2,4,5,4,2,1,4,3,3,3,4,3,3,3,3,3,3,3,3,3,3,3,3,3,3,3,3,3,3,3,3,3,3,3,3,3,3,3,3,3,3,3,3,3,3,3,35.7,36.2,2,35.95,1,2.77777777777778,5,1,.42495564977104,.642628508458168,Oxford
1996,1,1,1,1,1,1,1,3,1,3,1,1,4,2,3,3,6.05555555555556,0,5,4.11111111111111,74,3.33333333333333, ,1.36363636363636,1,7,7,7,7,7,7,5,7,5,7,4,7,7,1,4,7,7,6,1,3,4,1,2,1,1,6,6,3,6,2,4,1,7,4,3,5,8:51:47,2.6,2,1,4,5,5,5,5,5,5,5,5,5,3,4,2,2,2,2,3,17,5.16666666666667,4.72727272727273,5,5,5,5,5,5,3,5,5,4,5,5,5,3,5,4,4,5,1,5,1,3,1,2,1,3,3,4,1,2,5,3,3,2,2.53846153846154,1,2,2,1, ,4,4,5, ,5,3,8,8,1, ,2,8,1, , ,1,1, ,1, , , , , , , , , , ,6,5,3,5,6,6,5,6,3,2,4,4,4,5,5,2,2,5,4,1,1,3,4,3,2,5,4,4,5,4,5,5,1,1,1,1,3,5,5,3,5,1,1,4,3,2,3,2,4,3,2,4,2,1,5,4,4,4,2,2,4,1,2,2,1,1,2.15384615384615,4,3,2,3,2,2,1,2,2,2,3,4,1,1,35.2,36.3,2,35.75,1,2.77777777777778,5,1,2.19086206480232,.0476727380161848,Oxford
1997,2,4,1,3,3,2,2,3,4,2,2,2,2,4,4,4,3.88888888888889,0,3.44444444444444,3.66666666666667,74,4.16666666666667, ,2.54545454545455,1,4,4,4,3,4,3,4,4,4,4,3,4,4,3,5,4,6,3,5,4,5,4,4,4,4,4,4,4,4,4,4,4,4,5,4,4,8:51:02,3.2,2,0,3,4,3,4,4,3,3,3,3,4,4,5,4,3,4,2,1,26,4.33333333333333,2.36363636363636,2,2,3,4,2,2,2,3,2,2,2,2,4,4,4,4,3,4,4,4,2,2,4,4,4,4,2,4,2,3,4,2,4,3,3.23076923076923,2,2,2,1, ,4,4,5, ,3,2,4,3,2,8,2,8,1, , ,8,1, ,1, , , , , , , , , , ,5,5,5,4,4,3,3,7,4,2,4,4,4,2,2,2,2,5,4,1,2,2,4,4,3,2,3,3,3,2,3,4,3,4,3,2,4,2,2,3,4,4,2,5,4,4,4,2,3,2,4,4,2,2,4,4,2,2,4,3,4,3,3,2,2,4,2.69230769230769,2,3,3,3,2,3,3,3,2,3,3,4,2,3,35,35.6,2,35.3,1,2.77777777777778,5,1,.329501248958539,.791367451068664,Oxford
1979,1,2,1,2,2,1,1,3,2,1,1,2,2,2,4,1,3.27777777777778,0,5,4.11111111111111,74,1.05555555555556, ,1.54545454545455,1,5,4,3,5,4,2,7,5,6,1,7,1,1,1,4,1,1,1,1,1,1,1,1,1,1,1,1,1,1,1,1,1,1,2,1,1,8:49:38,2.2,2,1,5,5,5,5,5,5,5,5,5,5,5,8,5,2,2,2,2,35,3.16666666666667,4.90909090909091,5,5,5,5,4,5,5,5,5,5,5,4,5,4,5,4,4,5,4,2,1,2,5,5,5,4,5,4,4,5,5,4,5,4,4.38461538461539,2,2,1,3,3,2,2,3,3,3,3,5,5,1, ,1, ,3,8,8,2,1, ,1, , , , , , , , , , ,2,4,4,3,3,3,3,8,2,4,4,2,5,2,2,2,2,4,1,1,2,4,4,4,4,4,4,4,2,3,4,3,1,1,1,4,4,4,1,2,4,4,1,5,5,4,2,2,4,4,2,4,4,4,5,2,4,4,4,4,4,4,4,4,4,2,2.23076923076923,3,3,3,3,2,1,1,2,3,1,3,5,1,3,35.6,35.8,2,35.7,1,2.77777777777778,5,1,-.195497955510219,-1.98509281099392,Oxford
1971,1,2,1,2,1,1,1,1,1,4,1,3,1,2,3,1,3.11111111111111,0,3.66666666666667,4.11111111111111,74,3, ,1.45454545454545,1,2,2,2,3,4,4,5,2,7,1,7,3,2,4,1,2,3,2,2,2,3,4,3,3,3,2,6,2,3,3,2,2,4,6,2,2,8:48:19,2,2,8,4,3,4,4,5,4,4,3,3,3,4,4,2,2,2,2,1,23,3.83333333333333,2.63636363636364,4,4,2,3,2,3,1,1,4,2,3,5,5,4,5,4,2,5,3,4,1,3,3,4,5,4,2,3,3,4,4,4,4,3,3.53846153846154,1,2,1,2,1,1, ,4,2,2,2,5,2,1, ,1, ,2,4,8,3,1, ,1, , , , , , , , , , ,3,5,4,4,4,3,3,7,1,3,4,3,4,3,2,3,3,5,3,4,3,2,5,3,3,2,2,3,3,3,3,3,2,3,2,1,3,4,4,2,4,1,4,3,4,4,3,2,3,3,4,2,1,2,1,1,2,2,2,4,3,2,2,2,2,1,2.38461538461538,2,3,3,2,2,2,3,3,2,2,2,5,3,2,35.9,36.5,2,36.2,1,2.77777777777778,5,1,-.338679556728972,-.249805147204807,Oxford
1995,2,2,2,1,1,2,2,1,3,2,1,1,1,1,2,2,3.55555555555556,1,4.33333333333333,3.77777777777778,74,2.94444444444444, ,1.72727272727273,1,2,4,3,4,4,5,4,4,4,4,3,2,4,3,5,2,6,1,5,2,4,3,2,3,3,2,3,2,3,3,2,2,4,4,3,3,8:44:39,1.4,2,.5,3,5,4,4,5,5,4,4,5,3,3,2,2,1,1,4,1,14,3.16666666666667,3.27272727272727,5,4,4,5,4,2,2,3,2,2,3,4,5,2,4,4,2,4,4,5,1,1,2,2,2,3,1,2,2,2,3,1,4,2,2.07692307692308,1,2,2,1, ,4,4,5, ,3,1,7,7,1, ,2,8,1, , ,1,1, ,1, , , , , , , , , , ,3,4,4,4,2,2,3,6,3,4,4,5,3,2,3,3,2,5,4,2,3,3,4,4,4,3,4,3,3,4,2,2,4,3,4,2,5,5,3,3,4,4,2,2,4,4,2,2,3,4,2,4,2,2,4,3,2,2,3,2,4,4,3,3,2,2,3.07692307692308,2,3,4,2,3,3,3,4,3,4,2,5,3,4,34.3,36.1,2,35.2,1,2.77777777777778,5,1,.0431380465210342,-.299384794741639,Oxford
1996,2,5,1,3,2,1,4,4,2,2,1,2,4,2,4,2,4.22222222222222,0,3,2,74,4, ,2.45454545454545,1,4,4,4,4,4,6,4,4,4,4,4,4,4,4,4,4,6,4,4,4,4,4,4,4,4,4,4,4,4,4,4,4,4,4,4,4,8:43:44,2.8,2,1,4,4,2,2,5,3,2,2,3,4,4,4,4,1,3,2,2,12,2.83333333333333,2.81818181818182,4,5,4,4,2,1,2,2,2,1,4,2,2,2,4,1,2,2,1,2,2,3,2,3,2,2,1,2,3,3,3,2,3,3,2.46153846153846,1,2,2,1, ,4,4,5, ,5,5,1,1,1, ,2,6,1, , ,1,1, ,1, , , , , , , , , , ,3,3,3,3,3,2,2,6,2,5,4,5,5,2,2,3,1,5,4,3,1,2,4,2,4,3,4,4,1,2,4,4,1,4,3,2,5,5,5,3,2,4,1,2,3,2,4,4,3,4,5,3,1,2,4,1,2,4,2,4,2,2,4,2,4,2,3,4,3,4,3,2,3,3,4,2,3,2,5,3,3,34.6,36.2,2,35.4,1,2.77777777777778,5,1,.615864451396043,.642628508458168,Oxford
1995,2,3,3,3,2,2,3,4,2,3,2,2,3,3,2,2,4,0,1.11111111111111,3.22222222222222,74,1.88888888888889, ,2.63636363636364,1,6,3,5,6,6,6,3,3,5,2,5,5,3,4,1,2,6,1,2,2,2,2,2,1,2,3,3,1,2,2,1,2,3,1,1,2,8:42:45,2.4,2,0,3,1,1,2,1,1,1,1,1,1,2,2,1,2,2,4,1,11,3.83333333333333,1.72727272727273,2,2,2,2,2,2,1,1,1,2,2,2,3,2,4,3,3,4,4,4,2,2,2,3,3,4,2,2,2,2,2,3,4,3,2.61538461538462,1,2,2,1, ,4,1,5, ,1, ,5,4,1, ,2,5,1, , ,5,1, ,1, , , , , , , , , , ,7,2,2,2,5,5,5,5,2,5,1,2,5,5,2,2,5,3,2,2,2,4,4,5,2,4,3,5,1,2,4,1,2,4,2,4,1,2,5,2,2,2,4,4,4,4,1,2,4,4,2,3,2,1,4,3,3,2,3,4,5,2,2,4,2,2,3.23076923076923,4,3,4,3,3,3,3,3,4,4,3,4,3,2,36.1,36.7,2,36.4,1,2.77777777777778,5,1,.42495564977104,-1.24139809794145,Oxford
1975,2,2,2,3,2,2,2,2,2,2,2,3,2,2,3,2,1.5,0,4.77777777777778,3.44444444444444,74,1.83333333333333, ,2.09090909090909,1,1,1,1,1,1,2,1,2,1,1,2,1,2,2,2,1,4,1,3,2,2,2,2,2,2,2,2,1,1,1,1,2,2,2,2,2,8:39:12,2.4,2,0,4,5,5,5,5,5,5,4,4,5,5,5,3,2,3,2,2,39,3.5,3.18181818181818,4,3,4,3,4,2,2,3,3,3,4,3,4,3,5,3,3,3,3,4,1,3,3,3,4,3,2,3,3,3,4,4,3,4,3.23076923076923,2,2,1,1, ,4,4,3,3,8,6,8,4,2,4,1, ,3,1,6,3,1, ,2,coffee social group,"debating group, talks", , , ,5,2, , , ,5,3,3,3,3,4,4,8,1,3,3,4,4,2,2,2,2,4,2,2,2,2,3,3,4,4,3,5,5,4,4,3,2,2,2,4,3,4,4,2,3,4,2,4,3,3,3,2,3,3,2,2,2,2,4,4,3,3,3,3,2,2,3,3,3,3,2.53846153846154,3,3,3,2,2,2,2,3,3,2,3,4,2,3,37,36.9,2,36.95,1,2.77777777777778,5,1,-1.72276836851024,-1.29097774547828,Oxford
1995,3,3,3,2,3,3,3,3,3,3,3,3,3,3,4,3,2.55555555555556,4,3.22222222222222,3,74,4.5, ,2.90909090909091,1,2,2,2,2,3,2,2,2,6,3,2,3,3,2,2,2,3,3,2,5,2,6,2,2,2,6,5,6,6,5,6,2,6,6,6,6,8:37:19,3.2,2,4,2,3,3,3,3,3,4,4,3,3,4,2,3,1,2,1,1,21,3.33333333333333,2.09090909090909,3,2,2,2,2,2,2,2,2,2,2,4,4,2,4,2,2,3,3,3,2,3,3,3,3,3,3,2,3,3,3,3,3,2,2.84615384615385,2,2,2,1, ,4,2,5, ,4,3,4,5,1, ,2,2,3,1,8,1,1, ,1, , , , , , , , , , ,3,3,3,3,4,4,3,7,2,5,5,5,4,3,3,4,4,5,5,2,3,3,3,3,4,4,4,4,4,3,3,3,3,3,3,2,5,5,5,4,3,3,2,4,4,3,4,4,3,4,4,4,2,2,3,4,2,2,2,3,2,2,3,3,3,2,3.30769230769231,3,3,3,4,4,3,3,3,3,4,3,3,4,3,36.8,37,2,36.9,1,2.77777777777778,5,1,-.815951560791479,1.08884533628966,Oxford
1995,2,2,2,3,2,2,3,3,2,3,2,2,1,3,4,3,3.27777777777778,0,3.77777777777778,2.77777777777778,74,2.61111111111111, ,2.36363636363636,2,3,2,2,2,2,5,2,5,3,2,6,4,3,3,4,4,5,2,5,2,3,2,3,4,3,3,2,2,1,2,1,4,3,2,3,2,8:33:50,2.6,2,4,3,5,4,4,4,4,4,2,4,3,3,4,3,2,3,5,3,20,5,2.63636363636364,4,2,3,3,2,2,2,2,4,3,2,2,4,2,4,2,3,2,3,3,2,4,3,4,3,3,2,3,2,5,4,4,4,3,3.38461538461538,1,2,2,1, ,4,3,5, ,8,1,4,4,1, ,2,8,1, , ,1,1, ,2,AIESEC,Other university societies, , , ,6,4, , , ,5,5,4,5,5,6,3,6,2,3,4,4,2,3,4,4,3,5,4,1,2,3,4,4,4,4,2,4,3,3,4,4,3,3,3,1,4,4,2,4,4,4,2,3,3,4,3,2,4,4,4,3,2,2,3,5,3,3,2,3,5,3,3,3,2,4,2.76923076923077,3,4,3,2,2,3,2,2,3,4,2,4,3,3,35.5,35.7,2,35.6,1,2.77777777777778,5,1,-.195497955510219,-.59686267996263,Oxford
1988,4,2,2,2,2,2,3,2,2,4,3,2,2,2,2,1,2.44444444444444,0,3.55555555555556,3.44444444444444,74,2.83333333333333, ,2.54545454545455,1,2,2,3,2,2,6,2,2,2,2,2,2,4,2,2,2,3,2,2,2,6,2,2,2,2,2,2,2,3,2,3,2,6,6,2,3,8:31:40,1.8,2,1,3,5,3,4,4,3,3,4,3,3,4,3,3,2,3,1,1,27,4.83333333333333,3.27272727272727,5,5,3,5,3,2,2,3,3,3,2,4,4,2,4,2,5,2,4,4,1,2,2,1,2,4,2,4,2,3,4,2,4,3,2.69230769230769,2,2,2,1, ,4,2,5, ,2,2,8,8,2,8,2,8,1, , ,1,1, ,2,Spiritual course, , , , ,5, , , , ,4,5,5,5,5,5,5,7,4,2,2,4,4,5,1,2,4,4,2,2,2,1,5,4,2,5,4,4,3,2,3,2,2,3,2,4,4,2,3,1,2,4,4,4,4,4,2,2,4,2,4,2,2,1,4,3,2,2,3,2,5,2,4,2,2,4,2.84615384615385,4,3,3,3,2,2,2,4,3,3,3,4,3,2,35.8,35.6,2,35.7,1,2.77777777777778,5,1,-.91140596160398,-.398544089815303,Oxford
1952,1,2,1,2,2,1,1,1,2,2,1,2,1,1,2,1,3.66666666666667,0,4.77777777777778,3,74,3.16666666666667, ,1.45454545454545,1,5,5,5,2,4,2,3,5,5,2,6,3,4,2,3,4,4,2,2,3,5,2,4,3,3,2,5,2,2,3,2,2,5,6,2,4,8:31:30,1.4,2,.2,2,5,5,5,5,5,5,3,5,5,4,6,4,4,4,3,3,28,2.33333333333333,3,3,3,3,3,3,3,3,3,3,3,3,3,3,3,3,3,3,3,3,3,2,2,2,4,2,2,3,2,3,4,3,2,2,2,2.53846153846154,2,2,4,3,3,2,2,1, ,2,2,5,3,1, ,1, ,1, , ,3,1, ,2,street band,samba band, , , ,10,10, , , ,4,2,2,2,2,2,2,6,1,2,4,4,5,2,3,2,2,4,1,3,2,3,5,4,4,4,3,3,3,4,3,3,3,2,3,2,4,4,4,2,2,3,2,4,4,2,4,2,2,3,3,1,3,2,4,2,3,2,4,2,2,3,3,4,1,2,2.69230769230769,2,3,3,2,3,3,3,3,2,3,3,4,2,3,35.1,36.5,2,35.8,1,2.77777777777778,5,1,.138592447333536,-.101066204594311,Oxford
1992,2,3,1,3,2,1,2,3,2,2,2,4,3,2,2,2,2.66666666666667,0,3.44444444444444,3,74,3.77777777777778, ,2.09090909090909,1,2,4,3,2,3,3,2,3,3,4,3,2,3,2,2,2,4,1,5,4,5,3,4,3,4,5,5,2,2,5,2,4,5,4,3,3,8:30:01,2.6,1,0,3,4,4,4,4,4,3,2,3,3,3,3,4,2,2,3,3,9,6,2.72727272727273,2,3,3,3,2,2,3,4,2,3,3,2,4,3,4,4,1,3,2,4,2,2,2,4,2,3,1,1,3,1,2,3,4,2,2.30769230769231,2,2,2,1, ,4,2,5, ,2,1,5,3,1, ,2,4,1, , ,2,1, ,1, , , , , , , , , , ,5,7,7,6,6,5,6,6,0,3,5,5,3,2,5,3,3,5,5,1,3,4,4,3,4,3,3,4,3,3,3,3,2,2,3,1,5,4,2,3,4,4,1,3,3,2,4,4,2,3,3,2,2,3,3,3,4,4,2,3,3,4,3,2,2,2,3.15384615384615,3,3,3,3,3,3,3,4,3,3,4,3,3,3,37.1,37.2,2,37.15,1,2.77777777777778,5,1,-.720497159978978,.44430991831084,Oxford
1993,3,3,2,3,2,2,2,2,3,2,3,2,2,2,3,2,4.77777777777778,0,4,3.11111111111111,74,3.33333333333333, ,2.45454545454545,1,5,6,5,6,6,5,6,6,4,4,5,3,4,2,6,4,6,3,4,4,4,4,5,2,3,4,3,3,2,4,3,4,4,2,2,3,8:29:23,2.2,2,0,3,4,4,4,5,5,3,3,4,4,4,4,5,4,4,4,2,32,5.33333333333333,3.09090909090909,4,3,4,3,2,2,4,2,4,3,3,3,4,3,4,3,2,2,3,4,2,1,2,3,2,2,2,3,2,3,4,1,2,2,2.23076923076923,2,2,2,1, ,4,4,5, ,4,3,8,6,2,6,2,8,1, , ,2,2,1,2,Christian Union,Church Small Group, , , ,5,4, , , ,5,6,5,5,6,5,5,8,4,1,2,2,5,4,4,3,4,2,2,1,4,3,4,4,4,4,4,4,4,3,2,2,3,3,2,4,3,3,4,2,4,2,4,4,3,4,3,4,4,2,4,3,3,2,4,4,3,3,4,2,4,4,4,4,4,2,2.84615384615385,3,3,4,3,2,3,2,3,3,2,3,4,2,4,36.6,36.8,2,36.7,1,2.77777777777778,5,1,1.09313645545855,.0476727380161848,Oxford
1994,4,4,1,4,4,1,4,4,3,4,4,3,3,2,3,2,6.11111111111111,0,4.33333333333333,4.77777777777778,74,4.22222222222222, ,3.36363636363636,1,7,7,6,7,7,7,4,7,7,7,1,7,7,7,7,7,7,1,7,2,3,7,6,2,1,1,3,7,7,3,7,1,7,2,3,7,8:25:17,2.6,2,0,2,5,4,4,5,5,4,4,4,4,2,2,1,2,2,2,2,21,4.16666666666667,4.81818181818182,5,5,5,5,5,5,5,5,5,4,4,5,5,4,5,4,5,5,5,5,2,5,4,2,1,1,3,3,2,4,3,4,5,3,3.07692307692308,1,2,2,1, ,4,4,5, ,1, ,6,6,1, ,1, ,3,1,8,1,1, ,1, , , , , , , , , , ,7,5,3,2,4,4,4,5,2,2,1,3,5,1,5,5,1,2,3,2,5,2,3,2,4,4,4,4,4,4,4,3,2,2,5,4,3,4,2,2,2,2,1,1,4,4,3,2,2,2,3,4,2,5,4,5,3,4,4,4,4,2,4,3,1,4,3.23076923076923,2,4,1,2,3,3,5,3,4,3,4,4,4,4,35.4,35.9,2,35.65,1,2.77777777777778,5,1,2.23858926520857,.840947098605496,Oxford
1996,1,1,4,1,1,1,1,1,1,1,1,5,1,1,1,2,1.38888888888889,0,4.88888888888889,1,74,1.22222222222222, ,1.27272727272727,1,1,1,1,1,4,3,2,1,2,1,1,1,1,1,1,1,1,1,1,1,1,1,1,1,1,1,1,1,2,1,1,1,2,2,1,2,8:24:49,2,2,18,4,5,5,5,5,5,5,4,5,5,4,7,6,7,7,3,6,26,6.16666666666667,1,1,1,1,1,1,1,1,1,1,1,1,1,1,1,1,1,1,1,1,1,1,2,2,2,3,2,2,1,1,3,3,3,3,4,2.38461538461538,2,2,2,1, ,4,4,5, ,4,1,8,8,1, ,2,8,1, , ,5,1, ,2,socsoc, , , , ,10, , , , ,6,7,7,7,5,5,5,6,4,2,4,4,5,3,3,5,3,5,1,2,4,4,4,2,4,5,5,5,4,4,5,5,1,1,1,1,2,3,3,2,5,1,1,3,4,4,5,1,4,3,5,1,4,1,1,4,3,2,3,1,4,3,2,4,1,4,2.46153846153846,2,3,3,2,3,2,2,2,3,3,3,3,3,1,35.8,36.1,2,35.95,1,2.77777777777778,5,1,-1.81822276932274,-1.83635386838343,Oxford
1996,3,1,1,1,2,1,3,1,2,2,3,1,2,1,2,2,2.38888888888889,0,4.44444444444444,3,74,1.38888888888889, ,1.81818181818182,1,4,3,1,4,2,2,3,2,3,1,3,2,1,2,3,1,5,1,1,1,1,1,1,1,7,1,1,1,1,1,1,2,1,1,1,1,8:23:29,1.6,2,4,4,5,5,4,4,5,4,4,5,4,5,7,4,1,5,6,7,24,5.33333333333333,3.18181818181818,5,5,5,2,3,2,2,2,4,1,4,2,4,3,4,2,1,3,4,4,1,3,2,4,4,4,2,2,3,1,3,2,4,3,2.84615384615385,2,2,2,1, ,4,4,4,4,7,5,8,5,1, ,2,8,1, , ,5,1, ,1, , , , , , , , , , ,6,6,5,5,5,5,5,7,4,2,4,3,5,2,4,3,3,4,4,2,4,4,4,2,4,5,4,4,4,4,5,5,1,2,1,4,4,4,4,3,2,4,2,4,4,4,3,2,2,3,4,3,3,2,5,4,5,4,4,2,4,4,4,4,2,5,2.69230769230769,2,3,4,3,3,2,3,3,1,2,3,4,3,3,36.2,36.4,2,36.3,1,2.77777777777778,5,1,-.959133162010231,-1.68761492577293,Oxford
1996,2,3,1,2,4,1,4,2,2,2,2,4,4,2,3,3,3.83333333333333,0,3.55555555555556,3.33333333333333,74,1.94444444444444, ,2.27272727272727,1,5,5,3,5,5,4,6,3,5,4,4,3,2,1,2,4,6,2,4,1,3,2,2,2,2,1,2,1,2,2,1,2,3,2,1,2,8:21:43,3.2,2,0,3,4,3,4,4,3,4,2,4,4,2,3,3,2,3,1,1,18,4.16666666666667,3.18181818181818,3,4,4,4,4,2,2,4,2,2,4,4,4,2,4,4,2,2,4,4,1,4,4,2,2,2,4,2,2,3,3,3,4,3,2.92307692307692,2,2,2,1, ,4,4,5, ,3,2,5,5,1, ,2,8,1, , ,6,1, ,1, , , , , , , , , , ,4,5,4,4,4,4,4,6,4,2,4,2,5,4,4,3,3,4,2,2,3,3,4,4,5,5,5,5,3,4,4,4,2,3,3,4,3,4,4,2,2,3,1,1,4,2,3,2,3,3,2,4,4,1,2,4,4,4,4,2,4,3,5,3,2,4,2.61538461538462,3,3,3,2,2,2,3,4,2,3,2,4,2,3,35.1,36.4,2,35.75,1,2.77777777777778,5,1,.281774048552288,-1.19181845040461,Oxford
1966,4,1,2,2,4,4,2,2,2,4,4,2,2,2,2,2,4.88888888888889,1,3.11111111111111,2.33333333333333,74,4, ,2.81818181818182,1,6,5,4,6,6,5,4,4,2,7,6,6,5,3,4,6,5,4,4,6,4,5,2,3,4,4,2,3,4,4,4,4,5,6,3,5,8:21:27,2,2,1,3,4,2,4,3,2,3,4,4,2,5,8,6,4,6,7,6,19,6.33333333333333,2.81818181818182,4,2,4,4,3,2,1,2,5,1,3,2,4,2,3,2,1,4,1,2,1,3,4,4,4,2,2,3,3,4,5,3,5,3,3.46153846153846,1,2,1,1, ,4,4,4,1,1, ,8,8,1, ,1, ,2,1,2,2,1, ,1, , , , , , , , , , ,7,6,6,6,7,6,6,6,2,2,5,5,4,1,1,4,2,5,2,2,2,5,5,5,4,4,4,3,2,2,4,2,2,4,3,1,4,4,2,3,2,1,2,4,5,5,3,4,3,3,2,2,1,4,4,5,3,2,4,4,4,3,5,3,3,2,3.23076923076923,2,4,5,2,2,4,2,4,3,2,5,4,3,4,34.5,36,2,35.25,1,2.77777777777778,5,1,1.18859085627105,.642628508458168,Oxford
1995,4,2,1,3,4,2,4,3,2,2,2,2,2,2,4,2,4.27777777777778,0,3.66666666666667,3.55555555555556,74,1.61111111111111, ,2.63636363636364,1,3,5,2,5,6,5,2,6,5,3,5,3,2,5,3,5,7,5,2,2,2,1,1,1,1,2,2,2,1,2,2,1,2,1,1,3,8:20:15,2.4,2,4,3,5,4,4,5,4,2,2,3,4,5,7,6,7,6,4,6,13,5.33333333333333,3.63636363636364,4,4,4,4,4,3,2,2,4,4,5,2,4,2,4,3,4,5,4,4,1,4,4,5,3,1,2,3,4,4,3,4,5,1,3.30769230769231,2,2,2,1, ,4,4,5, ,7,2,5,5,1, ,2,7,1, , ,1,1, ,1, , , , , , , , , , ,5,5,5,5,6,6,6,6,3,5,4,2,4,5,4,3,5,1,3,1,4,5,1,2,5,5,5,5,3,5,3,2,1,4,3,5,1,1,5,1,2,4,2,2,4,5,2,2,3,2,4,3,4,1,4,2,5,4,5,1,3,4,4,4,4,2,3.07692307692308,4,4,4,3,2,3,2,4,3,3,2,5,3,3,33.2,37.9,4,35.55,1,2.77777777777778,5,1,.663591651802294,-1.48929633562561,Oxford
1989,3,2,1,2,2,4,2,4,3,3,3,3,2,3,2,2,3.61111111111111,0,3.44444444444444,3.33333333333333,74,3.5,7,2.63636363636364,1,4,3,3,4,4,4,3,5,5,4,5,2,4,2,4,4,2,3,4,2,3,2,3,4,4,4,3,4,4,5,3,4,4,2,5,3,8:16:01,2.4,1,5,3,3,3,2,4,5,5,2,4,3,5,8,4,2,2,2,2,9,4,3,3,3,3,3,3,3,3,3,3,3,3,4,4,2,3,4,2,3,3,5,1,4,4,4,3,2,3,3,2,5,3,4,2,3,3.23076923076923,1,1,2,1, ,2,2,5, ,5,2,4,1,1, ,2,4,1, , ,3,1, ,1, , , , , , , , , , ,6,5,4,1,3,5,4,6,1,3,3,3,4,4,3,3,3,3,2,3,2,3,4,2,4,3,2,3,4,2,3,3,4,2,3,4,4,3,3,2,3,4,4,3,2,3,2,3,4,2,3,3,4,3,3,2,4,2,3,3,4,3,2,2,3,4,3,3,3,3,2,3,2,2,2,5,5,3,2,3,3,34.3,36.5,2,35.4,1,2.77777777777778,5,1,.0908652469272851,.19641168062668,Oxford
1940,1,1,1,1,1,1,1,1,1,1,1,2,3,2,3,2,1.16666666666667,0,2.33333333333333,1,74,2.33333333333333, ,1,1,1,1,1,1,1,1,1,1,1,1,1,1,1,4,1,1,1,1,7,1,3,1,1,1,1,1,1,4,4,4,2,1,4,4,1,1,8:08:48,2.4,2,0,4,5,3,3,3,3,1,1,1,1,1,1,1,1,1,1,1,37,4.16666666666667,1.18181818181818,3,1,1,1,1,1,1,1,1,1,1,1,1,1,1,1,1,1,1,1,1,5,2,3,2,2,5,3,4,5,5,3,4,3,3.53846153846154,1,2,3,8,4,1, ,2,2,1, ,8,5,2,1,1, ,2,1,8,1,1, ,2,Pensioners,Men/women with foreign spouses not in UK, , , ,25,30, , , ,6,5,5,2,2,5,5,7,2,5,1,3,4,2,3,2,4,1,1,5,3,3,4,4,4,3,1,5,1,3,3,1,1,1,1,5,5,1,1,2,3,1,2,1,5,3,5,1,3,1,5,1,1,5,3,3,1,1,1,1,3,1,1,1,5,1,1.07692307692308,1,1,1,1,1,1,1,1,1,1,1,5,2,1,34.2,36.6,2,35.4,1,2.77777777777778,5,1,-2.00913157094775,-.84476091764679,Oxford
1993,2,2,2,3,2,2,2,2,3,2,2,4,2,2,2,4,3.33333333333333,1,5,4,74,3.16666666666667, ,2.18181818181818,1,3,3,3,2,3,5,4,4,5,2,5,3,6,2,2,3,2,3,5,4,3,6,3,3,4,4,2,3,2,3,2,3,3,3,3,1,8:08:40,2.8,2,7,2,5,5,5,5,5,5,5,5,5,4,5,4,2,2,2,5,20,6,4,4,4,4,4,4,4,4,4,4,4,4,4,4,4,4,4,4,4,4,4,2,2,2,2,2,4,2,4,2,2,4,2,2,4,2.61538461538462,2,2,2,1, ,4,4,5, ,4,3,4,4,1, ,2,5,1, , ,3,2,5,1, , , , , , , , , , ,6,6,6,6,6,6,6,7,3,4,4,4,4,4,4,3,3,4,3,2,4,4,4,4,4,4,4,4,4,4,4,4,4,4,4,1,4,4,4,4,4,4,4,4,4,4,4,4,4,4,4,4,4,4,4,4,4,4,4,4,4,4,4,5,4,4,3.07692307692308,2,3,3,3,4,3,3,3,4,3,3,2,2,4,37,36.8,2,36.9,1,2.77777777777778,5,1,-.147770755103969,-.101066204594311,Oxford
1991,3,3,3,2,4,3,3,4,3,4,4,1,3,2,3,2,4.77777777777778,0,3.66666666666667,2.66666666666667,74,3.72222222222222, ,3.27272727272727,1,5,5,5,5,7,5,5,5,3,4,2,6,5,4,5,4,6,5,5,3,4,3,5,3,4,4,3,2,5,5,3,4,3,4,3,4,8:03:50,2.2,2,12,2,4,4,4,4,4,4,3,3,3,4,4,3,1,1,4,4,23,2.5,2.54545454545455,4,4,4,3,2,2,2,2,2,1,2,3,4,3,4,2,2,2,2,2,1,3,4,3,2,3,4,3,3,3,4,4,4,3,3.30769230769231,1,2,1,1, ,4,4,2,1,4,3,6,4,1, ,2,6,3,1,8,1,1, ,1, , , , , , , , , , ,3,3,3,2,2,2,2,8,2,2,4,2,4,2,3,4,3,4,4,2,2,4,3,2,4,4,4,4,3,4,3,3,3,3,2,2,2,4,4,2,2,4,2,2,4,4,3,1,3,4,4,3,3,2,3,4,4,3,4,4,4,4,3,2,3,2,2.61538461538462,3,3,3,3,2,3,2,3,2,2,2,3,4,2,35.8,36.7,2,36.25,1,2.77777777777778,5,1,1.09313645545855,.394730270774008,Oxford
1995,3,3,2,3,2,3,2,3,4,2,3,2,2,2,2,4,4,0,3.22222222222222,3.44444444444444,74,4, ,2.72727272727273,1,4,4,4,4,4,4,4,4,4,4,4,4,4,4,4,4,4,4,4,4,4,4,4,4,4,4,4,4,4,4,4,4,4,4,4,4,8:03:04,2.4,2,1,3,3,3,4,4,3,3,3,3,3,4,4,2,1,1,2,1,19,1,2.27272727272727,2,2,2,2,2,2,4,2,4,1,2,4,4,3,4,2,3,4,3,4,2,4,4,5,4,2,4,2,4,4,2,4,4,2,3.46153846153846,1,2,2,1, ,4,1,5, ,3,1,8,5,1, ,2,8,1, , ,4,1, ,2,Regional Societies, , , , ,7, , , , ,1,1,1,1,1,1,1,6,2,1,1,5,5,1,1,4,2,5,4,2,1,4,4,3,4,3,4,3,1,3,2,2,4,4,4,1,4,5,2,5,1,1,2,2,3,4,3,3,2,3,4,3,2,3,3,3,3,3,2,2,3,3,2,2,2,2,2.69230769230769,4,4,3,2,2,3,2,3,2,1,4,4,2,3,36.2,36.6,2,36.4,1,2.77777777777778,5,1,.42495564977104,.642628508458168,Oxford
1995,2,2,1,2,1,3,2,2,1,2,2,2,3,1,1,2,2.66666666666667,1,2.77777777777778,1.33333333333333,74,1.27777777777778, ,1.81818181818182,1,2,3,2,6,5,4,1,5,4,1,5,1,2,1,2,1,2,1,1,1,2,1,1,1,1,1,1,2,1,1,1,1,1,2,2,2,8:02:47,1.8,2,1,3,4,4,4,3,2,1,1,2,4,5,8,7,4,5,2,3,62,4.83333333333333,2.09090909090909,2,3,2,2,2,2,2,2,4,1,1,1,2,1,1,1,1,1,2,2,1,2,4,5,4,2,2,3,5,4,5,4,4,3,3.61538461538462,2,2,2,1, ,4,4,4,1,3,1,8,8,1, ,2,8,3,8,8,1,2,7,2,Committee,Volunteer RA,Part-time Job,Undergraduate Coursemates,Hometown Friends,3,6,6,5,3,6,5,4,5,5,4,4,10,4,2,4,4,4,4,3,4,4,4,2,2,2,2,5,4,5,4,3,5,1,3,5,2,2,5,3,3,3,4,4,2,2,4,2,2,4,4,2,2,2,4,4,4,2,2,4,4,2,2,4,2,5,4,5,4,2,4,2.15384615384615,1,3,3,2,2,2,2,2,3,2,2,5,3,1,36,36.2,2,36.1,1,2.77777777777778,5,1,-.720497159978978,-1.7867742208466,Oxford
1989,2,4,4,3,2,4,4,2,4,2,2,2,4,2,2,2,3.94444444444444,0,4.11111111111111,2.44444444444444,74,2.88888888888889, ,3,1,4,4,2,5,6,3,4,5,2,2,3,5,3,3,3,6,5,6,3,2,5,2,3,3,3,2,3,2,2,3,2,3,5,5,2,2,8:02:39,2.4,2,0,3,4,5,4,4,4,4,4,4,4,5,7,6,1,4,1,4,15,3.33333333333333,2.54545454545455,4,2,4,2,4,2,2,2,2,2,2,2,2,2,2,2,2,4,2,4,1,3,3,3,2,3,2,2,2,4,4,2,3,4,2.84615384615385,2,2,1,1, ,4,4,4,1,4,3,4,3,1, ,2,4,1, , ,3,1, ,1, , , , , , , , , , ,3,5,5,3,2,2,3,7,1,3,3,2,4,4,4,3,4,4,2,2,4,4,4,4,4,4,4,4,3,3,4,3,2,3,2,2,2,4,4,2,3,4,4,4,4,2,3,2,4,2,4,4,2,2,4,4,3,3,3,2,4,4,3,3,2,3,2.76923076923077,3,3,3,3,2,2,2,3,2,4,4,5,2,3,36.5,36.3,2,36.4,1,2.77777777777778,5,1,.37722844936479,-.348964442278471,Oxford
1953,2,3,1,2,2,2,3,1,2,1,2,2,2,1,4,2,3.22222222222222,0,4.66666666666667,2,74,2.22222222222222, ,1.90909090909091,1,3,2,3,4,2,5,2,5,3,3,5,2,1,4,2,3,6,3,2,2,3,2,2,2,1,3,3,2,2,2,2,1,2,2,2,5,8:02:17,2.2,2,1,3,5,5,5,5,5,5,2,5,5,5,8,6,6,6,2,2,47,4,2,2,2,2,2,2,2,2,2,2,2,2,2,2,2,2,2,2,2,2,2,1,2,3,5,2,2,1,2,2,4,4,5,1,3,2.76923076923077,2,2,1,4,4,1, ,1, ,1, ,4,4,2,6,2,8,2,8,3,3,1, ,2,WI,Cycling group,tai chi class, , ,10,5,6, , ,5,4,3,4,4,4,4,7,3,1,4,2,5,5,4,2,5,1,2,2,3,5,3,5,4,5,5,5,3,4,4,3,1,3,4,5,2,2,4,2,4,4,4,2,4,2,4,4,2,2,1,2,4,1,2,2,4,4,4,2,4,4,4,4,2,4,2.38461538461538,4,2,3,3,2,2,2,3,2,2,3,4,2,1,36.5,36.4,2,36.45,1,2.77777777777778,5,1,-.24322515591647,-.943920212720454,Oxford
1992,4,4,2,4,4,2,2,4,2,3,2,2,2,2,4,4,4.33333333333333,0,5,4.11111111111111,74,4.38888888888889, ,3,1,5,5,3,5,5,5,3,6,3,3,5,5,6,3,5,3,5,3,5,5,5,5,5,5,5,5,5,3,3,3,3,5,5,5,3,4,7:59:49,2.8,2,0,3,5,5,5,5,5,5,5,5,5,3,3,1,1,1,1,1,22,4.83333333333333,3.36363636363636,4,4,4,3,4,3,2,4,3,2,4,4,4,4,4,4,4,4,5,4,2,2,1,2,2,2,1,2,2,2,3,2,2,2,1.92307692307692,2,2,2,1, ,4,4,5, ,3,3,6,6,1, ,2,8,1, , ,3,1, ,2,OGM, , , , ,5, , , , ,4,5,5,5,5,5,5,6,3,2,2,4,4,2,2,2,4,4,4,2,2,2,4,4,2,3,4,2,4,2,2,2,4,4,2,4,4,4,4,2,5,2,2,2,4,4,2,4,2,4,4,2,2,4,2,4,1,2,2,4,4,2,4,4,2,2,3.84615384615385,4,3,5,3,4,3,4,5,3,4,4,4,4,4,36,36.7,2,36.35,1,2.77777777777778,5,1,.711318852208545,.989686041215992,Oxford
1991,2,5,1,4,4,5,2,2,4,2,2,1,1,3,1,2,5.44444444444444,0,4.11111111111111,4.44444444444444,74,4.27777777777778, ,3,1,6,5,6,6,4,6,6,7,5,6,5,6,5,3,7,5,6,4,6,3,5,5,5,2,2,4,5,4,4,7,3,6,4,3,5,4,7:55:42,1.6,2,.5,3,4,4,5,5,5,4,2,4,4,1,2,3,2,2,2,5,11,6,3.18181818181818,2,4,5,1,2,2,4,4,5,2,4,4,4,2,5,5,5,5,5,5,2,1,2,1,4,4,1,1,3,2,4,3,3,2,2.38461538461538,1,2,2,1, ,4,4,5, ,8,1,5,2,1, ,2,7,1, , ,3,1, ,1, , , , , , , , , , ,7,5,6,6,6,6,6,6,2,4,5,4,3,1,5,2,2,5,5,4,1,2,4,5,3,2,1,3,3,4,2,2,2,4,4,1,5,5,2,4,3,5,4,3,2,5,5,1,3,3,4,2,1,4,3,2,1,2,1,4,5,2,4,4,4,4,2.69230769230769,3,3,4,3,2,2,2,3,4,2,3,5,2,2,35.8,36.1,2,35.95,1,2.77777777777778,5,1,1.66586286033356,.890526746142327,Oxford
1992,3,1,1,1,3,4,2,2,2,2,1,4,4,1,1,1,4.22222222222222,0,4,3.22222222222222,74,1.88888888888889, ,2,1,6,5,3,5,6,6,7,6,6,1,5,1,1,5,3,6,3,1,2,1,2,1,1,1,1,2,1,1,2,1,2,1,4,3,7,1,7:55:17,2.2,2,0,4,5,4,4,5,5,4,1,4,4,5,7,7,3,7,5,6,12,6.66666666666667,3,4,4,5,2,4,2,1,1,4,2,4,4,4,4,5,2,2,2,2,4,1,5,4,4,5,4,5,5,5,4,4,2,2,4,4.07692307692308,2,2,2,1, ,4,2,2,1,3,3,4,4,1, ,2,6,1, , ,1,1, ,1, , , , , , , , , , ,7,7,6,6,7,7,6,7,2,1,4,2,5,4,3,1,5,2,2,1,3,4,4,5,4,5,5,5,5,4,5,5,1,2,2,5,1,1,4,1,1,4,4,5,4,2,3,4,4,2,4,2,3,4,4,4,5,5,2,2,2,2,3,3,5,1,2.53846153846154,3,3,3,2,1,2,2,3,2,3,3,4,3,3,35.9,36.7,2,36.3,1,2.77777777777778,5,1,.615864451396043,-1.24139809794145,Oxford
1994,3,4,1,5,3,2,4,4,4,2,2,2,2,2,3,2,4.61111111111111,1,4,2.11111111111111,74,3.38888888888889, ,3.09090909090909,1,5,6,4,5,6,6,5,5,5,3,6,5,4,5,6,2,4,1,2,3,4,4,3,2,3,4,3,2,3,6,3,3,5,4,3,4,7:54:58,2.2,2,0,3,4,4,4,4,4,4,4,4,4,4,6,4,4,4,2,2,12,4.83333333333333,2.45454545454545,1,2,1,2,1,3,4,4,2,4,3,2,3,1,2,2,1,2,2,4,2,3,4,3,2,4,2,3,3,3,2,2,4,4,3,1,2,2,1, ,4,4,5, ,2,1,3,3,1, ,2,8,1, , ,3,1, ,1, , , , , , , , , , ,4,5,4,6,5,5,3,6,2,4,4,4,4,1,3,3,2,4,4,2,2,4,2,4,4,4,4,5,4,4,4,4,2,2,2,3,5,4,3,3,3,2,4,4,5,3,2,1,1,3,4,2,4,4,5,4,4,4,4,2,3,4,4,4,3,4,3,3,4,4,2,3,3,3,3,3,2,4,4,2,3,36.4,36.8,2,36.6,1,2.77777777777778,5,1,.949954854239798,.0972523855530165,Oxford
1976,2,3,1,2,3,3,3,2,4,3,1,2,4,1,3,2,4.27777777777778,0,4.44444444444444,3.77777777777778,74,2.61111111111111, ,2.45454545454545,1,4,5,4,4,5,4,5,6,4,4,4,4,4,3,4,4,5,4,3,2,4,2,3,3,3,2,4,2,2,3,2,3,2,2,2,3,7:52:44,2.4,2,4,5,5,5,5,5,5,3,4,4,4,3,3,6,3,3,3,3,35,6.33333333333333,4,4,4,4,4,4,4,4,4,4,4,4,4,4,4,4,4,3,4,3,4,2,3,5,5,2,2,2,2,3,4,5,2,5,4,3.38461538461538,1,2,2,1, ,2,2,5, ,8,5,8,8,1, ,1, ,3,8,8,3,1, ,1, , , , , , , , , , ,3,7,7,7,7,7,7,6,2,1,1,4,4,3,4,5,3,1,2,2,4,4,4,2,4,4,3,4,4,4,4,4,3,3,3,5,3,3,3,3,2,4,3,4,4,2,4,4,2,2,2,2,4,3,4,4,4,4,4,3,4,4,4,4,4,3,2.07692307692308,2,3,2,2,2,2,2,2,2,2,2,4,2,2,35.6,35.9,4,35.75,1,2.77777777777778,5,1,.663591651802294,-.59686267996263,Oxford
1992,4,3,1,4,4,3,4,3,2,3,4,2,1,2,2,3,4,1,4,3.66666666666667,74,2.11111111111111, ,3.18181818181818,1,5,5,2,5,7,6,3,6,2,5,4,3,2,3,2,5,2,5,2,2,2,2,2,2,3,2,2,2,3,2,2,1,2,2,2,3,7:52:28,2,2,0,3,4,4,4,5,4,4,3,4,4,5,6,6,6,5,5,5,29,5.33333333333333,2.81818181818182,2,1,3,4,2,2,4,2,4,3,4,3,4,3,4,4,4,3,4,4,1,3,4,4,2,3,3,4,3,3,4,3,4,3,3.30769230769231,1,2,2,1, ,4,4,5, ,5,2,5,4,1, ,2,8,1, , ,6,1, ,2,Orchestra,Choir, , , ,10,5, , , ,6,6,4,5,6,5,3,6,3,2,3,3,4,2,1,2,2,5,2,2,4,4,3,3,2,4,4,4,3,4,3,3,2,2,4,3,3,3,4,2,2,1,2,3,4,4,2,1,2,3,4,3,2,3,3,4,4,3,4,2,4,4,3,2,3,3,3.07692307692308,3,4,4,2,3,3,3,3,3,3,4,4,2,3,34.2,35.9,2,35.05,1,2.77777777777778,5,1,.42495564977104,-1.04307950779412,Oxford
1993,3,2,1,2,3,2,3,2,1,2,2,2,1,1,1,2,4.88888888888889,2,4.11111111111111,3.88888888888889,74,3.66666666666667, ,2.09090909090909,1,5,6,4,6,4,7,6,7,6,4,5,5,4,2,5,5,5,2,3,3,7,4,3,4,6,4,4,1,2,3,3,6,5,3,1,4,7:50:49,1.4,2,0,4,5,4,4,5,5,3,3,4,4,5,8,6,6,5,5,7,19,4.66666666666667,3.18181818181818,4,4,4,4,2,3,3,3,3,1,4,4,4,3,4,4,4,4,3,5,1,4,3,3,2,2,3,1,2,4,4,2,3,3,2.76923076923077,2,2,2,1, ,4,4,5, ,3,2,8,8,1, ,2,8,1, , ,1,1, ,2,University peer support,University play, , , ,2,1, , , ,6,4,4,4,5,5,5,6,3,2,4,4,4,2,2,2,2,3,2,2,3,3,4,2,4,4,3,4,3,4,4,4,2,2,3,4,2,3,2,2,2,3,2,2,2,2,3,2,2,2,4,2,2,2,4,4,3,4,4,2,3,4,4,4,2,2,2.46153846153846,2,4,4,2,2,2,2,3,2,2,2,4,2,3,34.7,36.4,2,35.55,1,2.77777777777778,5,1,1.18859085627105,.345150623237176,Oxford
1994,4,4,1,3,5,2,3,2,2,4,5,4,4,2,5,4,4.61111111111111,1,5,4.55555555555556,74,6.05555555555556, ,3.18181818181818,1,5,5,4,5,3,7,7,7,6,4,5,1,5,1,6,3,6,3,7,6,6,6,6,6,6,6,5,7,6,6,6,6,6,6,6,6,7:49:29,3.8,2,3,4,5,5,5,5,5,5,5,5,5,1,1,1,1,1,1,1,20,4.66666666666667,4.72727272727273,5,5,5,5,5,5,3,4,5,5,5,5,5,4,5,4,5,4,5,4,2,2,5,4,2,2,3,3,2,4,4,3,4,1,3,2,2,2,1, ,4,4,5, ,2,1,8,8,1, ,1, ,1, , ,1,1, ,2,Sports club, , , , ,5, , , , ,5,6,4,3,5,5,5,5,2,1,4,2,4,5,2,4,5,5,4,1,1,1,4,4,4,1,1,1,1,4,1,1,4,4,3,1,3,5,5,2,5,1,2,5,2,4,1,2,3,4,4,4,1,1,1,4,1,1,5,5,5,2,5,4,4,1,4.23076923076923,5,4,5,2,4,4,5,5,4,4,5,5,3,5,36.3,36.5,2,36.4,1,2.77777777777778,5,1,.949954854239798,2.47707546732095,Oxford
1984,2,2,1,2,1,2,2,1,1,2,1,2,1,2,2,2,3.44444444444444,0,4.88888888888889,3.77777777777778,74,3.61111111111111, ,1.54545454545455,2,4,4,4,5,4,4,4,5,3,2,2,5,4,2,2,3,4,1,5,3,5,3,3,3,3,3,4,4,3,4,4,4,3,5,3,3,7:48:42,1.8,2,0,5,5,5,5,5,5,5,4,5,5,4,5,5,4,4,4,4,20,3.33333333333333,3.45454545454545,4,4,4,4,4,2,2,3,4,3,4,4,5,3,5,3,3,4,3,4,1,5,5,5,5,5,4,3,3,5,4,5,5,4,4.46153846153846,2,2,2,1, ,4,4,5, ,2,1,6,6,1, ,2,8,1, , ,3,1, ,2,Squash Club, , , , ,5, , , , ,4,3,4,3,3,3,3,6,3,3,3,4,4,2,2,3,3,4,2,2,3,2,4,4,4,4,5,4,4,4,3,4,2,1,1,2,3,3,3,3,4,4,1,3,3,4,4,2,3,3,4,2,1,4,3,2,2,2,4,2,3,3,4,3,2,2,2.46153846153846,2,2,3,3,2,2,3,3,2,2,3,4,2,3,36.3,36.7,2,36.5,1,2.77777777777778,5,1,-.052316354291467,.295570975700344,Oxford
1986,2,2,1,2,2,1,2,2,2,3,2,2,3,2,3,2,2.94444444444444,0,3.77777777777778,1,74,2.88888888888889, ,1.90909090909091,1,2,2,2,3,6,4,2,5,4,2,2,3,2,2,6,2,2,2,3,1,2,6,2,2,3,1,2,6,2,2,2,2,6,6,2,2,7:48:11,2.4,2,3,2,4,3,4,4,4,4,5,4,2,5,6,5,3,3,2,3,12,4.66666666666667,1,1,1,1,1,1,1,1,1,1,1,1,1,1,1,1,1,1,1,1,1,1,2,3,4,2,2,1,2,3,1,2,3,3,2,2.30769230769231,1,2,1,1, ,4,1,4,1,3,1,2,1,1, ,1, ,1, , ,1,2,6,1, , , , , , , , , , ,6,4,4,4,4,6,4,7,1,3,5,4,4,2,4,2,2,5,4,3,2,2,4,3,4,3,2,4,4,4,4,4,2,4,4,1,4,4,4,4,2,5,2,2,4,4,4,2,3,3,2,2,1,3,3,3,3,2,4,5,4,3,4,3,1,2,3,3,3,3,3,3,3,3,3,3,3,3,3,3,3,37.1,35.9,2,36.5,1,2.77777777777778,5,1,-.481861157947724,-.348964442278471,Oxford
1992,3,2,2,3,4,2,3,4,3,2,2,3,2,2,2,2,2.94444444444444,0,3.33333333333333,3,74,2.38888888888889, ,2.72727272727273,1,3,3,2,3,2,4,5,3,4,2,4,2,2,2,3,2,5,2,2,2,2,3,2,3,3,2,2,1,1,5,2,2,3,4,2,2,7:42:54,2.2,2,0,3,4,4,4,4,4,4,2,2,2,5,7,4,4,3,2,3,12,4.5,3,4,4,4,4,3,2,3,2,2,2,3,3,4,2,4,2,2,2,4,4,1,2,4,3,2,2,2,2,2,3,3,3,2,2,2.46153846153846,2,2,1,1, ,2,2,4,1,1, ,5,5,1, ,2,2,3,1,1,1,1, ,1, , , , , , , , , , ,4,5,5,5,4,4,4,7,1,2,4,4,4,3,3,2,4,4,3,1,3,2,4,4,4,4,4,4,3,4,4,3,2,3,2,2,3,4,4,2,2,2,2,2,4,2,4,2,2,2,3,2,3,2,4,3,4,4,4,2,4,2,3,2,2,4,2.46153846153846,3,3,3,2,2,2,3,2,3,2,3,4,2,2,35.5,36.8,2,36.15,1,2.77777777777778,5,1,-.481861157947724,-.795181270109958,Oxford
1959,1,1,1,1,1,1,1,1,1,1,1,1,1,1,1,1,2.27777777777778,0,3.77777777777778,2,86,1.61111111111111, ,1,1,5,1,1,4,1,6,1,2,2,1,2,4,2,4,2,1,1,1,1,1,4,1,1,1,1,1,1,1,1,1,1,1,5,5,1,1,20:54:25,1,2,0,4,5,5,5,5,4,2,1,4,3,4,8,7,5,2,2,7,23,5.5,1.72727272727273,3,4,1,3,1,1,2,1,1,1,1,1,4,1,4,1,1,2,1,3,1,5,2,5,1,3,5,5,5,5,4,1,1,1,3.30769230769231,1,2,1,1, ,2,2,2,2,1, ,2,5,1, ,1, ,2,1,5,7,1, ,1, , , , , , , , , , ,4,7,1,7,7,7,1,6,3,3,3,2,4,2,2,2,3,3,2,1,3,5,5,5,5,5,5,5,1,3,5,1,1,5,1,3,4,4,4,1,5,4,3,4,5,2,3,2,3,2,5,2,5,2,4,4,5,5,5,1,2,5,5,3,2,2,2.92307692307692,3,4,3,3,2,3,3,3,2,3,3,4,2,4,38.4,38.4,3,38.4,1,0,1,1,-.575950324683904,-1.17698599103543,Bamberg
1989,3,4,2,4,3,4,4,3,4,5,3,2,2,2,5,2,4.83333333333333,2,3.44444444444444,2.22222222222222,86,4.77777777777778, ,3.54545454545455,1,4,3,6,5,5,5,2,7,5,5,6,7,1,4,7,4,7,4,5,3,4,4,6,5,4,5,6,3,4,5,5,5,7,7,2,6,10:05:31,2.6,2,4,2,5,4,4,4,4,3,1,3,3,4,5,6,5,4,4,4,21,6.33333333333333,1.72727272727273,3,2,1,2,2,1,1,1,1,1,4,1,4,1,1,3,2,4,1,3,2,1,3,3,2,3,1,2,3,2,4,3,4,1,2.46153846153846,2,2,2,1, ,4,4,5, ,3,1,5,4,2,2,2,6,1, , ,1,2,4,2,Fachschaft, , , , ,4, , , , ,6,7,7,7,6,5,6,8,2,4,2,3,4,1,3,1,2,3,2,1,1,4,3,4,4,3,3,1,2,1,1,1,1,1,2,4,2,2,2,3,4,1,2,3,4,3,2,3,3,4,3,4,3,3,5,5,2,2,2,2,2,4,3,3,4,3,4.07692307692308,5,5,5,4,3,4,4,5,3,4,4,5,3,4,37,37.3,2,37.15,1,1,1,1,1.3757045508564,2.01389160653982,Bamberg
1989,2,2,2,2,2,2,2,2,2,2,2,2,2,2,4,2,2,0,5,2.88888888888889,67,1.77777777777778,7,2,1,1,1,1,1,4,1,1,1,7,1,7,1,1,1,1,4,1,1,1,1,4,1,1,1,1,2,1,1,1,1,2,1,7,4,1,1,16:09:46,2.4,2,1,3,5,5,5,5,5,5,5,5,5,5,8,4,3,2,3,7,22,1.83333333333333,3.09090909090909,4,4,2,4,2,2,4,4,2,4,2,4,4,2,4,2,2,2,2,4,1,4,4,5,2,3,4,4,4,3,4,5,3,5,3.84615384615385,2,1,1,1, ,4,4,4,2,3,1,6,3,2,1,2,6,3,1,7,2,1, ,1, , , , , , , , , , ,3,1,3,1,1,2,3,9,2,3,3,1,5,3,3,3,4,2,2,2,2,4,3,5,4,5,5,5,3,3,5,5,1,3,3,5,2,3,2,2,5,5,1,5,3,4,2,2,3,4,4,4,3,2,4,4,3,4,3,2,4,2,2,4,3,3,3.07692307692308,4,3,4,3,2,3,3,4,3,3,4,4,2,2,37.3,37,2,37.15,1,5,1,1,-.788086724199154,-1.00904506484726,Bamberg
1994,1,2,1,3,4,1,3,2,1,1,3,3,3,2,2,2,2.16666666666667,0,4,1,62,1.77777777777778, ,2,1,1,1,1,4,1,3,1,4,1,2,7,2,2,2,1,4,1,1,1,1,2,2,1,1,1,2,7,1,1,1,1,1,3,2,1,3,10:45:54,2.4,2,1,3,4,4,4,4,4,4,4,4,4,3,3,5,2,2,4,2,28,4.83333333333333,1.18181818181818,3,1,1,1,1,1,1,1,1,1,1,1,1,1,1,1,1,1,1,1,1,3,2,4,4,4,1,1,2,4,3,3,3,4,2.92307692307692,2,2,1,1, ,4,2,4,1,4,3,4,3,1, ,2,8,3,8,8,2,1, ,1, , , , , , , , , , ,6,5,5,3,5,5,5,8,2,4,4,1,5,5,1,1,4,2,1,1,2,3,1,2,4,5,5,5,3,3,3,2,1,2,2,5,1,3,5,1,4,3,2,2,2,1,2,3,1,2,1,1,3,1,3,3,3,3,3,5,3,4,4,3,5,2,2.61538461538462,2,3,3,3,2,2,3,3,2,3,3,4,3,2,37,37,2,37,1,5,1,1,-.660804884490004,-1.00904506484726,Bamberg
1997,4,5,2,5,3,4,5,4,4,3,5,3,2,2,5,3,5.27777777777778,0,3.55555555555556,3.33333333333333,63,3.5, ,4,1,7,6,7,5,7,7,5,7,6,5,3,5,4,2,6,4,5,4,5,2,6,1,3,2,1,3,6,4,2,2,4,1,7,7,2,5,11:30:18,3,2,14,2,4,4,2,5,4,4,3,3,3,5,7,7,5,6,3,4,15,4,3,4,4,3,5,3,1,2,2,2,3,4,3,5,1,4,3,1,4,4,5,2,1,2,4,5,3,1,1,2,2,1,4,2,2,2.30769230769231,2,2,2,1, ,4,4,5, ,4,1,4,4,1, ,2,8,1, , ,2,2,3,1, , , , , , , , , , ,3,3,4,3,6,5,6,7,2,1,1,2,4,5,3,3,4,4,4,1,4,4,3,5,3,5,4,3,3,2,2,3,3,3,2,2,3,4,3,2,4,3,1,1,4,4,2,1,4,4,3,5,5,2,4,4,5,5,4,3,5,5,2,3,1,5,4,4,4,4,3,4,5,3,5,3,4,5,5,4,4,37,36.9,1,36.95,1,4,1,1,1.7151227900808,.72634450576384,Bamberg
1958,4,4,3,3,2,4,4,4,4,2,4,1,1,2,3,2,3.22222222222222,0,4.22222222222222,1.44444444444444,89,5.33333333333333, ,3.45454545454545,1,2,3,4,2,2,5,2,5,2,6,3,2,4,4,5,3,2,2,6,6,1,6,7,6,6,6,6,5,4,5,5,6,7,6,3,5,11:02:07,1.8,2,0,3,4,4,3,5,4,5,3,5,5,5,7,5,6,3,5,1,18,5.33333333333333,1.81818181818182,4,4,2,1,1,1,2,1,1,1,2,2,2,1,2,2,1,1,1,1,2,3,3,2,1,2,2,3,4,3,5,2,3,3,2.76923076923077,2,2,3,2,2,1, ,5, ,2,2,5,2,1, ,1, ,3,1,8,2,1, ,1, , , , , , , , , , ,5,6,5,6,6,4,4,6,1,2,4,4,4,2,2,1,2,5,3,2,1,3,5,5,3,3,3,2,1,2,3,1,3,5,3,2,4,5,5,3,3,2,3,4,5,5,4,2,4,5,3,2,1,3,3,4,2,1,3,2,4,2,3,2,2,1,3.07692307692308,3,4,4,2,2,4,2,4,3,3,3,4,3,3,36.7,36.9,1,36.8,1,9,1,1,.145313433667947,2.57369469383372,Bamberg
1995,2,3,2,3,4,2,3,2,2,2,2,2,2,1,2,2,3.22222222222222,0,4.88888888888889,2.22222222222222,79,2.72222222222222, ,2.45454545454545,1,3,2,3,2,3,5,2,2,2,5,3,5,3,2,5,5,4,2,2,2,3,2,3,2,2,4,4,2,3,1,3,2,4,4,2,4,12:23:26,1.8,2,0,4,5,5,5,5,5,5,4,5,5,5,8,6,6,6,4,6,18,3.83333333333333,2.36363636363636,4,3,3,3,2,1,2,2,2,2,2,2,2,2,4,2,1,1,2,4,1,2,4,4,3,4,3,4,4,4,4,3,4,3,3.53846153846154,2,2,2,1, ,4,4,4,1,8,3,8,8,1, ,2,8,1, , ,1,1, ,1, , , , , , , , , , ,4,3,5,5,4,2,3,7,3,3,4,4,4,2,1,1,2,5,4,2,2,4,4,4,4,4,4,3,3,4,3,3,2,2,2,2,3,4,3,2,2,2,3,2,4,3,4,2,2,3,4,3,3,3,4,4,4,4,4,2,3,2,3,2,2,2,2.61538461538462,2,3,3,2,2,2,3,3,3,3,4,4,2,2,36.3,36.9,2,36.6,1,4,1,1,.145313433667947,-.0573798164476251,Bamberg
1992,3,3,1,4,1,2,2,2,2,4,1,2,3,3,3,3,2.33333333333333,0,4.33333333333333,1,87,1.38888888888889, ,2.27272727272727,1,2,2,1,4,4,3,1,3,5,1,7,1,1,1,2,1,2,1,1,1,3,1,1,1,1,2,1,1,1,1,2,1,2,2,1,2,10:45:53,2.8,2,0,2,5,5,4,5,5,4,2,5,4,3,3,4,2,3,1,2,8,2.33333333333333,1,1,1,1,1,1,1,1,1,1,1,1,1,1,1,1,1,1,1,1,1,1,2,4,5,2,3,3,3,4,4,5,3,4,3,3.46153846153846,2,2,2,1, ,4,2,4,1,2,1,4,1,1, ,1, ,1, , ,2,1, ,1, , , , , , , , , , ,3,2,2,1,3,3,3,6,1,2,2,1,3,2,2,1,3,4,3,2,2,4,3,4,3,5,2,3,3,2,3,2,1,1,2,1,3,3,2,2,2,3,1,2,3,3,1,2,3,3,3,2,3,3,2,4,4,4,2,2,1,3,3,2,2,1,1.92307692307692,2,2,2,3,2,2,2,1,2,2,2,3,2,1,36.6,36.8,2,36.7,1,1,1,1,-.533523044780854,-1.40090722595299,Bamberg
1996,2,3,1,4,1,1,2,2,2,2,2,2,2,2,4,2,2.22222222222222,0,3.22222222222222,3,72,2.55555555555556, ,2,1,2,2,2,3,4,2,3,4,1,2,2,2,2,1,2,2,2,2,3,5,5,1,3,1,1,1,1,2,2,2,2,1,5,6,2,3,11:58:44,2.4,2,1,4,4,3,4,3,2,3,2,4,4,5,5,6,4,4,2,2,18,3,1.90909090909091,3,3,2,3,2,1,1,1,1,2,2,2,4,3,4,4,1,2,3,4,1,2,4,4,3,4,5,4,3,4,4,3,3,3,3.53846153846154,2,2,2,1, ,4,4,4,4,3,3,6,4,1, ,2,8,1, , ,2,1, ,1, , , , , , , , , , ,2,4,3,3,4,2,2,7,2,2,2,2,5,4,2,3,3,2,4,2,2,3,3,5,4,5,4,4,2,2,3,2,2,4,1,4,1,2,2,1,4,4,2,5,3,4,2,3,4,4,3,3,2,2,2,4,2,3,4,4,3,4,4,4,1,3,2.38461538461538,2,3,3,2,2,3,2,3,2,2,3,3,2,2,36.5,36.7,2,36.6,1,6,1,1,-.618377604586954,-.225320742635796,Bamberg
1960,2,2,2,3,1,1,2,2,3,2,1,2,2,2,4,1,2.66666666666667,0,4.44444444444444,2,79,2.44444444444444,20,1.90909090909091,1,4,2,2,2,4,4,2,2,2,2,6,2,4,2,2,2,2,2,2,2,4,2,2,2,2,2,2,2,2,2,2,2,4,4,2,4,14:06:29,2.2,2,1,2,5,5,5,5,3,5,4,4,4,5,5,3,3,4,2,5,13,3.5,2.36363636363636,3,2,3,1,4,1,2,2,2,3,3,2,3,1,3,1,1,2,2,3,1,3,3,4,2,3,3,3,3,5,4,4,4,3,3.38461538461538,2,1,1,4,2,1, ,1, ,8,2,5,5,1, ,1, ,1, , ,3,1, ,1, , , , , , , , , , ,3,3,4,3,3,5,4,5,2,2,2,3,5,3,3,3,3,3,2,2,2,4,4,4,4,3,4,2,3,2,3,3,2,2,3,4,2,3,3,2,3,3,2,3,4,3,2,2,3,3,3,3,2,4,4,4,3,3,4,4,2,4,4,3,4,2,2.15384615384615,2,2,2,2,2,2,2,2,3,2,3,3,2,2,36.3,36.7,1,36.5,1,-4,1,1,-.278959365362554,-.337281360094577,Bamberg
1968,1,2,1,2,2,2,1,2,3,1,1,2,1,1,5,2,3.16666666666667,1,4.55555555555556,2.33333333333333,90,3.44444444444444, ,1.63636363636364,1,4,3,3,3,3,3,3,4,3,3,3,3,4,3,3,3,3,3,4,3,3,5,5,3,3,3,4,3,3,2,3,3,4,4,3,4,10:59:30,2.2,2,8,4,4,5,5,5,5,3,5,5,4,4,5,5,2,6,5,4,46,2.5,2.81818181818182,4,4,4,3,2,3,2,2,2,1,4,1,4,1,4,2,1,2,4,2,1,2,5,4,2,3,2,4,4,4,5,4,4,2,3.46153846153846,2,2,1,6,6,2,2,2,1,6,4,6,6,2,5,2,8,3,8,8,5,1, ,1, , , , , , , , , , ,3,3,2,2,3,2,2,10,5,3,3,2,4,3,2,2,2,3,2,2,2,4,3,2,4,3,3,3,2,3,2,2,2,2,2,4,2,2,2,2,3,2,2,4,3,4,2,2,3,2,3,3,2,2,3,4,2,2,2,4,2,2,3,3,4,2,2.38461538461538,2,2,3,2,2,2,2,3,3,2,3,3,3,2,36,36.7,2,36.35,1,1,1,1,.102886153764896,.670364197034449,Bamberg
1992,4,4,3,4,2,4,3,4,3,2,1,1,2,2,4,1,2.72222222222222,0,4.22222222222222,1.44444444444444,54,3.27777777777778, ,3.09090909090909,1,2,2,2,1,4,1,2,6,2,2,6,2,4,2,6,1,2,2,5,2,4,2,5,5,2,2,2,2,4,2,2,2,7,6,3,2,11:45:25,2,2,0,2,5,4,5,5,5,4,2,4,4,4,3,4,2,2,2,2,27,4.83333333333333,2,4,3,2,4,2,1,1,1,1,1,2,1,1,1,4,1,1,1,1,2,1,3,5,5,3,2,3,2,5,2,3,2,5,4,3.38461538461538,1,2,2,1, ,4,4,4,1,3,3,8,6,2,1,2,6,3,1,6,4,1, ,1, , , , , , , , , , ,3,6,6,6,4,4,4,9,3,3,2,2,4,2,3,2,2,2,1,1,3,4,2,4,4,4,4,3,3,2,4,3,2,2,2,4,1,3,4,2,4,1,1,1,4,2,4,1,2,3,4,3,4,2,3,2,5,3,4,3,5,3,4,3,2,3,3.07692307692308,2,2,4,3,2,3,2,4,3,3,5,5,4,3,36.54,36.64,2,36.59,1,3,1,1,-.236532085459504,.502423270846278,Bamberg
1994,5,5,2,5,5,4,5,5,4,5,4,2,1,2,3,1,5.27777777777778,0,2.33333333333333,4.44444444444444,88,3.44444444444444, ,4.45454545454545,1,7,7,6,6,6,6,6,5,7,3,1,4,5,5,6,5,7,3,3,3,3,3,5,3,3,6,5,2,4,3,3,2,3,3,5,3,12:04:36,1.8,2,21,2,2,2,2,2,3,3,3,2,2,1,2,4,3,2,4,3,10,5,4,4,5,5,5,5,4,2,2,2,5,5,5,4,4,5,4,4,5,4,5,2,2,2,1,5,2,1,1,4,1,1,1,1,2,1.84615384615385,2,2,3,1, ,4,4,5, ,2,2,3,1,1, ,1, ,1, , ,1,1, ,2,Ergotherapie, , , , ,1, , , , ,7,3,3,5,6,6,5,5,1,1,5,2,4,4,2,2,3,4,5,1,2,5,2,5,3,5,4,4,3,2,3,2,2,4,2,2,2,5,5,2,3,3,2,2,3,3,1,3,4,3,3,4,3,2,4,4,5,4,4,3,3,5,3,2,4,3,4.23076923076923,5,5,4,4,4,4,4,5,4,4,5,4,2,5,36.8,36.6,2,36.7,1,10,1,1,1.7151227900808,.670364197034449,Bamberg
1993,2,2,1,2,1,3,4,2,2,2,1,2,2,2,3,1,2,0,4.11111111111111,3.11111111111111,67,1.27777777777778, ,2,1,5,1,1,2,1,3,5,4,2,1,2,1,2,2,1,1,1,1,1,1,3,1,1,1,1,1,1,1,1,1,1,1,3,2,1,1,11:47:42,2,2,2,4,4,5,5,5,4,4,2,4,4,4,6,5,2,3,4,6,20,3.33333333333333,3,4,4,2,5,2,2,4,4,2,2,2,4,4,3,3,2,2,4,2,4,1,3,3,4,2,3,1,2,2,4,3,4,2,2,2.69230769230769,2,2,1,1, ,4,4,4,2,8,6,6,5,2,1,2,5,1, , ,1,1, ,1, , , , , , , , , , ,4,3,3,4,3,3,3,8,3,1,2,2,4,5,3,3,3,4,4,1,4,4,4,4,3,5,3,5,3,2,5,2,1,2,1,3,1,4,2,1,4,2,4,4,5,3,1,2,4,2,3,4,4,1,4,5,5,4,3,1,5,5,4,3,2,4,2,2,3,2,2,2,2,2,2,2,1,2,4,2,2,36.8,36.6,2,36.7,1,5,1,1,-.788086724199154,-1.51286784341177,Bamberg
1970,2,2,1,1,2,3,2,1,3,1,2,1,1,2,3,1,2.38888888888889,0,4.55555555555556,1.88888888888889,76,2.44444444444444, ,1.81818181818182,1,6,2,2,5,2,1,3,4,1,2,5,1,4,1,1,1,1,1,1,1,5,4,4,4,2,1,1,1,4,1,2,1,5,5,1,1,9:56:36,1.6,2,3,4,5,5,5,5,2,4,5,5,5,5,6,5,2,4,4,4,22,4.83333333333333,2.18181818181818,4,4,4,1,3,1,1,1,1,1,3,1,3,2,3,1,1,1,1,4,1,5,5,4,3,4,5,5,5,4,5,5,4,5,4.53846153846154,2,2,1,3,3,4,2,2,1,4,1,3,2,1, ,1, ,3,2,8,2,1, ,1, , , , , , , , , , ,5,4,5,5,5,5,6,8,1,4,2,2,5,3,5,5,4,1,1,2,4,5,5,4,2,3,2,5,3,3,5,1,1,3,2,4,1,1,4,2,4,3,2,1,5,3,2,2,2,4,3,2,2,2,2,5,5,5,5,2,1,5,4,4,3,1,1.92307692307692,2,3,2,2,1,1,2,3,1,2,3,3,1,2,36.8,36.6,2,36.7,1,-3,1,1,-.491095764877804,-.337281360094577,Bamberg
1975,3,2,4,2,1,3,4,2,1,2,5,1,1,2,3,2,1.22222222222222,0,4.55555555555556,1.77777777777778,73,1.83333333333333, ,2.63636363636364,1,1,1,1,1,1,2,1,1,1,1,2,2,1,1,1,1,2,1,2,1,6,2,2,1,1,1,1,1,2,1,2,1,4,2,1,2,11:15:27,1.8,2,10,3,5,5,5,5,5,5,4,4,3,5,7,6,6,6,4,3,21,2.16666666666667,1.36363636363636,2,2,2,1,1,1,1,1,1,1,2,1,4,1,4,2,1,1,1,1,1,2,5,3,2,4,3,4,3,4,3,2,1,3,3,2,2,1,1, ,4,1,4,1,3,3,3,3,2,1,1, ,3,1,8,2,1, ,1, , , , , , , , , , ,2,2,3,2,2,2,3,8,1,1,4,2,5,5,3,2,5,1,3,2,2,4,4,3,2,4,3,4,1,2,3,1,1,4,1,5,1,1,3,1,5,3,3,3,4,3,2,2,2,2,4,2,2,1,3,4,2,2,3,2,3,3,2,2,2,3,2.76923076923077,2,4,3,2,3,2,3,2,3,2,5,3,3,2,36.5,36.6,2,36.55,1,1,1,1,-1.38206864284185,-.953064756117871,Bamberg
1963,2,3,1,3,2,1,2,2,2,2,2,2,2,2,4,3,3.33333333333333,0,4,2,73,2.61111111111111, ,2,1,5,2,6,5,6,4,2,3,2,1,2,7,2,3,2,5,2,1,2,2,2,2,2,2,1,3,2,4,1,3,3,1,7,4,3,3,13:21:09,2.6,2,2,3,4,4,4,4,4,4,4,4,4,3,3,3,2,2,2,3,11,3.33333333333333,1.90909090909091,1,2,1,2,1,4,1,1,2,3,3,2,4,1,2,2,1,2,2,2,1,2,5,4,2,2,3,3,4,4,4,5,4,3,3.46153846153846,1,2,1,3,3,4,2,2,1,1, ,4,2,2,1,1, ,1, , ,1,1, ,1, , , , , , , , , , ,3,3,4,4,3,3,3,7,1,4,2,3,4,1,3,4,1,3,1,5,4,4,2,3,3,4,3,4,1,3,3,1,2,4,3,3,3,4,4,3,2,5,1,3,3,2,4,2,3,3,2,2,4,2,4,4,4,4,2,4,2,2,2,2,4,1,2.23076923076923,2,3,3,2,2,2,2,2,2,2,3,4,2,2,36.3,36.6,2,36.45,1,-1,1,1,.230167993474047,-.169340433906406,Bamberg
1988,3,3,2,3,2,2,4,2,4,2,1,3,3,2,3,2,2.5,0,3.44444444444444,3.22222222222222,76,2.11111111111111, ,2.54545454545455,1,2,4,2,5,2,2,2,2,2,2,1,2,5,2,2,2,4,2,3,1,2,2,1,2,2,1,1,2,2,3,3,1,5,4,1,2,9:38:30,2.6,2,2,3,4,4,4,4,3,2,3,4,3,3,5,5,3,4,4,4,30,2.83333333333333,3.27272727272727,4,3,3,4,4,3,4,4,3,2,2,4,4,2,3,3,3,4,2,4,1,3,4,4,2,3,3,3,2,4,4,2,3,2,3,2,2,1,1, ,4,4,4,1,3,2,8,5,1, ,2,6,1, , ,2,2,8,2,Kulturprojektgruppe, , , , ,7, , , , ,4,2,3,3,3,2,3,8,4,3,3,3,4,2,3,2,4,3,3,2,3,4,4,1,5,3,4,4,3,3,3,3,1,1,3,4,2,3,2,2,2,2,3,2,4,2,4,3,3,2,3,2,2,2,4,4,3,4,4,2,3,3,4,4,2,3,2.30769230769231,2,3,3,2,2,2,2,3,3,2,2,3,2,2,36.4,36.59,2,36.495,1,6,1,1,-.406241205071704,-.673163212470919,Bamberg
1997,4,4,1,4,4,3,3,4,2,3,2,1,4,2,4,2,3.11111111111111,0,3.55555555555556,3.44444444444444,90,2.77777777777778, ,3.09090909090909,1,4,4,2,4,4,3,2,3,4,2,4,3,2,2,5,2,4,2,3,3,3,2,3,2,2,3,2,2,2,3,2,3,5,6,2,2,11:40:02,2.6,2,0,4,4,3,4,5,3,3,3,4,3,4,4,2,2,2,2,2,17,3.66666666666667,3.36363636363636,4,4,4,4,3,2,2,3,3,4,4,4,4,3,4,4,3,4,2,3,2,3,2,5,2,2,2,2,3,3,2,4,3,2,2.69230769230769,2,2,2,1, ,4,4,5, ,3,2,4,4,1, ,2,4,1, , ,1,1, ,2,Fußball, , , , ,5, , , , ,3,3,4,4,4,4,4,6,1,2,3,2,4,3,3,2,2,3,2,1,2,4,3,4,3,3,3,4,3,4,3,3,2,2,2,3,2,3,3,2,2,2,2,3,3,2,3,3,4,3,3,4,2,2,4,4,2,2,2,3,2,3,3,4,2,4,2.38461538461538,2,2,2,2,3,2,2,4,2,2,3,4,3,2,36.6,36.5,2,36.55,1,2,1,1,.0604588738618466,-.00139950771823498,Bamberg
1976,2,3,2,4,2,3,2,4,2,2,1,2,4,2,1,2,4,0,4.33333333333333,2.66666666666667,91,2.27777777777778, ,2.45454545454545,1,5,4,3,5,6,4,2,6,2,2,3,6,4,6,5,2,6,1,2,1,3,1,2,2,5,3,3,1,2,2,2,2,3,3,3,1,11:08:22,2.2,2,3,4,5,4,4,4,5,5,4,4,4,4,4,5,3,4,3,5,28,4.66666666666667,3.81818181818182,5,5,4,5,4,2,4,2,4,2,5,2,2,2,4,2,3,3,2,4,1,2,3,3,2,3,2,3,2,3,2,3,2,3,2.53846153846154,1,2,1,1, ,4,2,4,4,3,1,6,4,1, ,1, ,3,1,8,2,2,4,2,Sport, , , , ,1, , , , ,3,5,6,4,5,5,5,8,1,3,2,4,5,2,4,2,4,4,3,4,4,5,2,2,3,5,5,4,3,4,4,2,1,2,2,2,2,4,2,2,2,4,2,5,4,4,2,3,4,2,4,4,3,2,5,5,3,3,4,1,3,5,3,4,2,2,3.23076923076923,4,4,3,3,3,3,2,3,4,3,4,5,2,4,36.6,36.5,2,36.55,1,4,1,1,.739295352310647,-.505222286282748,Bamberg
1997,5,5,4,4,5,5,5,5,3,5,5,2,1,2,2,1,6.16666666666667,0,4,4.44444444444444,68,2.72222222222222, ,4.63636363636364,1,7,6,7,7,6,7,7,7,7,6,7,6,5,6,7,5,6,2,4,1,7,2,5,1,2,2,1,2,3,1,2,1,6,2,1,6,9:37:05,1.6,2,4,4,4,4,3,4,5,4,3,4,5,5,7,7,6,6,6,6,22,6.83333333333333,3.81818181818182,5,4,4,4,4,3,4,4,2,4,4,5,4,4,5,5,4,4,4,5,2,1,3,3,1,2,1,4,2,2,3,1,1,1,1.92307692307692,2,2,2,1, ,4,4,5, ,8,1,8,6,2,1,2,8,1, , ,2,1, ,2,Hochschulsport, , , , ,10, , , , ,7,7,7,7,7,6,7,7,3,4,5,3,5,1,3,5,1,5,5,3,3,5,4,5,3,5,4,4,3,4,4,4,2,3,2,1,5,4,4,3,1,3,2,4,4,4,2,1,5,2,4,3,1,4,3,5,2,1,4,1,3,4,4,4,1,4,3.92307692307692,4,5,5,3,3,4,3,4,3,3,5,5,4,5,35.9,36.4,2,36.15,1,1,1,1,2.3939592685296,-.0573798164476251,Bamberg
1992,4,4,2,4,3,3,2,4,4,3,2,4,4,2,4,3,2.11111111111111,0,3.66666666666667,2.33333333333333,54,2.22222222222222, ,3.18181818181818,1,2,2,1,2,2,2,1,2,1,1,7,1,2,3,2,1,5,1,2,1,4,2,2,2,1,2,2,2,2,2,4,2,4,4,1,1,11:24:46,3.4,2,0,4,3,4,4,4,3,4,3,4,4,3,4,4,3,2,3,3,18,4,2.27272727272727,4,1,3,4,3,1,2,1,1,1,4,2,2,1,4,2,1,2,4,3,1,2,2,3,2,2,2,2,2,2,3,2,2,2,2.15384615384615,2,2,2,1, ,4,4,5, ,2,2,6,4,2,1,2,4,1, , ,1,2,2,2,Kindertanz,Schwimmen, , , ,2,1, , , ,2,4,4,4,5,5,5,8,1,3,2,4,4,2,2,1,3,4,4,3,2,4,4,4,3,5,3,4,3,3,5,3,1,3,1,3,4,4,3,4,2,4,2,4,3,2,4,3,3,2,4,3,4,3,4,4,3,3,4,3,5,5,4,3,4,5,3.46153846153846,4,4,4,3,3,2,3,4,4,4,4,4,2,4,36.33,36.36,2,36.345,1,3,1,1,-.703232164393054,-.561202595012138,Bamberg
1992,2,4,3,2,2,2,2,3,4,2,2,2,2,2,2,2,3.83333333333333,0,3.55555555555556,2.22222222222222,62,3.61111111111111, ,2.54545454545455,1,4,4,4,5,6,6,3,5,4,2,4,3,2,3,3,3,6,2,5,3,6,3,5,3,2,3,3,3,3,3,3,5,6,6,1,2,10:49:27,2,2,1,4,4,4,4,5,4,2,2,4,3,5,8,6,5,5,5,6,24,3.16666666666667,2.09090909090909,3,3,3,2,2,1,2,2,1,1,3,3,2,1,3,3,1,2,3,2,1,4,4,5,3,3,4,4,4,4,5,3,4,3,3.84615384615385,2,2,2,1, ,4,2,5, ,8,1,8,8,2,1,2,8,3,1,4,1,2,5,1, , , , , , , , , , ,4,3,3,3,3,3,3,9,3,3,4,3,4,2,2,3,4,4,3,2,4,4,2,3,5,5,4,4,3,3,3,3,2,2,2,3,4,4,2,2,2,2,2,2,4,3,3,2,2,2,4,2,3,4,4,4,5,4,4,3,4,4,4,3,2,5,2.76923076923077,4,3,3,2,2,3,2,4,2,2,4,4,2,3,36.5,36.3,2,36.4,1,-1,1,1,.612013512601497,.83830512322262,Bamberg
1993,4,4,1,3,2,4,4,4,2,2,2,3,2,1,4,2,4.27777777777778,0,4.22222222222222,3.33333333333333,78,3.61111111111111, ,2.90909090909091,1,5,5,5,3,6,5,3,6,5,5,4,4,4,2,5,5,2,3,5,2,5,2,5,5,5,2,3,2,4,2,3,5,5,4,3,3,10:14:03,2.4,2,0,3,5,5,4,5,5,4,2,4,4,4,6,4,4,4,5,3,16,4.33333333333333,3.27272727272727,4,3,4,4,4,2,3,3,3,2,4,4,4,3,4,3,2,4,2,4,2,3,3,4,2,2,4,4,3,5,4,2,4,3,3.30769230769231,2,2,2,1, ,4,4,5, ,3,3,6,6,1, ,2,8,1, , ,1,2,1,1, , , , , , , , , , ,5,4,5,3,4,5,5,7,3,3,3,2,4,3,5,4,3,2,3,1,3,4,3,4,4,4,4,3,3,4,3,4,2,2,2,4,3,4,4,2,3,4,3,4,5,3,3,2,3,2,2,3,3,2,4,4,3,4,4,2,5,3,4,4,2,4,2.61538461538462,3,3,3,3,3,3,2,3,2,3,2,3,2,2,36.1,36.3,2,36.2,1,6,1,1,.951431751825897,.83830512322262,Bamberg
1996,2,3,1,2,5,2,4,1,1,2,2,1,1,2,1,1,3.38888888888889,0,3.22222222222222,3.11111111111111,90,3.5, ,2.27272727272727,1,4,3,3,4,2,5,3,4,3,3,5,4,3,2,4,4,4,1,2,2,7,2,6,1,1,4,5,2,2,5,3,2,6,7,3,3,11:13:42,1.2,2,0,2,5,4,4,3,2,3,2,4,2,5,5,4,2,3,2,4,8,4.16666666666667,2.54545454545455,4,4,2,4,2,1,2,2,4,1,2,4,4,3,3,3,2,4,3,2,2,3,2,5,4,4,1,1,3,3,2,2,5,3,2.92307692307692,2,2,3,1, ,4,1,5, ,5,1,6,4,1, ,2,6,1, , ,1,1, ,1, , , , , , , , , , ,3,6,4,6,2,4,2,6,1,5,5,4,4,3,3,2,4,5,4,1,2,4,5,3,5,5,5,3,3,2,4,2,2,2,2,1,5,4,3,3,1,4,2,1,5,1,4,3,3,2,5,2,2,3,3,3,2,3,3,2,1,5,3,3,5,4,3.15384615384615,3,2,5,4,3,3,2,4,4,3,3,5,2,3,35.9,36.3,2,36.1,1,-1,1,1,.272595273377097,.72634450576384,Bamberg
1960,2,2,3,2,2,2,2,1,2,1,2,2,2,2,3,1,1.22222222222222,0,2.77777777777778,1.77777777777778,80,2.94444444444444, ,1.90909090909091,1,1,1,1,1,1,2,1,1,1,1,1,2,1,2,1,1,2,1,1,2,1,4,1,1,6,2,7,2,4,1,2,2,7,7,1,2,10:17:19,2,2,1,3,4,4,4,4,4,2,1,1,1,5,7,6,6,6,6,6,14,1,1.45454545454545,2,2,2,2,1,1,1,1,1,1,2,1,3,1,3,1,1,3,2,1,1,2,5,3,4,3,2,3,2,3,4,5,4,2,3.23076923076923,2,2,1,1, ,1, ,3,1,1, ,4,1,1, ,1, ,2,1,7,3,1, ,1, , , , , , , , , , ,1,1,1,1,1,1,3,5,0,3,3,4,4,1,5,5,1,2,4,2,3,4,4,4,4,3,4,4,1,4,4,1,1,3,2,3,4,4,2,3,1,3,1,1,3,2,3,2,2,2,4,1,1,3,4,3,3,3,3,4,2,3,3,2,4,2,2.69230769230769,2,3,4,2,2,2,3,3,3,2,4,4,3,2,35.8,36.3,2,36.05,1,6,1,1,-1.38206864284185,.166541418469936,Bamberg
1992,1,1,2,2,4,2,2,1,1,2,1,3,2,1,2,2,1.55555555555556,0,4.88888888888889,2.55555555555556,95,1.38888888888889, ,1.72727272727273,1,2,1,1,1,1,2,1,2,1,1,6,1,1,1,1,1,3,1,1,1,2,1,2,2,1,1,2,1,1,1,1,1,2,3,1,1,10:56:01,2,2,2,3,5,5,5,5,5,4,5,5,5,4,6,5,4,3,2,4,18,2.5,1.54545454545455,3,2,2,2,2,1,1,1,1,1,1,2,4,2,4,1,1,4,1,4,1,4,2,5,5,4,3,1,2,2,2,2,4,3,3,1,2,1,1, ,4,4,4,4,5,4,4,3,1, ,2,5,1, , ,2,1, ,1, , , , , , , , , , ,3,3,2,2,3,2,2,7,2,4,2,3,4,2,2,4,2,5,4,4,1,4,2,5,1,5,3,5,5,2,4,3,1,1,2,1,3,5,5,2,4,3,1,5,4,4,2,2,3,4,2,2,4,3,2,1,2,5,3,2,3,5,3,2,1,3,2.38461538461538,2,4,3,3,2,2,2,2,3,2,2,3,3,1,36.43,36.2,2,36.315,1,-1,1,1,-1.12750496342355,-1.40090722595299,Bamberg
1997,4,3,1,4,2,2,4,3,4,2,4,3,2,2,4,2,3.11111111111111,0,3.11111111111111,3,51,3.5, ,3,1,4,3,3,5,3,2,1,3,5,2,5,2,3,2,5,2,4,2,4,2,4,3,3,2,2,3,4,4,4,4,5,2,6,4,4,3,10:29:08,2.6,2,1,4,4,3,3,4,2,3,3,4,2,3,4,3,3,2,2,3,18,4.5,2.09090909090909,2,3,2,2,2,1,2,3,2,2,2,4,4,2,4,2,2,3,2,4,2,2,3,3,2,3,2,3,2,3,3,3,3,2,2.61538461538462,2,2,2,1, ,4,4,5, ,8,5,5,5,2,1,2,6,1, , ,2,1, ,1, , , , , , , , , , ,5,5,5,4,4,4,4,7,3,4,3,3,4,2,2,2,2,4,2,2,2,4,4,4,4,3,2,3,3,2,2,2,2,2,2,2,2,3,3,2,3,2,2,4,4,3,3,2,3,4,3,2,2,2,3,4,4,3,3,4,5,2,2,3,2,2,2.61538461538462,2,3,3,3,3,2,3,3,2,3,3,2,2,2,36.1,36.2,2,36.15,1,-7,1,1,.0604588738618466,.72634450576384,Bamberg
1997,2,2,1,3,2,3,4,2,2,2,2,2,1,2,3,1,3.72222222222222,0,4.33333333333333,2.66666666666667,65,3.61111111111111, ,2.27272727272727,1,4,4,4,4,4,5,2,4,4,4,4,4,4,2,4,4,2,4,2,4,4,3,5,6,2,4,3,3,4,4,4,2,4,5,2,4,11:44:09,1.8,2,1,4,4,4,4,4,5,4,4,5,5,4,6,6,3,3,2,2,19,4.33333333333333,2.27272727272727,4,4,2,3,2,1,2,2,1,2,2,2,2,1,5,4,2,2,2,4,2,3,4,3,3,3,2,3,4,4,3,4,4,2,3.23076923076923,2,2,2,1, ,4,4,5, ,8,2,6,5,1, ,2,8,1, , ,2,1, ,2,Reitverein, , , , ,5, , , , ,5,4,5,4,4,4,4,6,3,3,4,2,4,2,2,2,2,5,4,1,2,4,3,3,4,5,4,3,3,4,3,3,2,2,3,1,2,4,4,1,2,2,2,3,4,4,1,2,4,3,3,5,3,1,4,4,3,3,2,2,1,4,3,3,2,4,3.07692307692308,2,3,4,4,2,4,3,3,4,4,3,4,2,2,36.4,36.1,2,36.25,1,2,1,1,.527158952795397,.83830512322262,Bamberg
1959,5,5,2,5,5,5,5,4,2,5,4,2,2,2,5,2,5.44444444444444,0,3,2,68,4.16666666666667, ,4.27272727272727,1,7,7,6,6,6,7,6,6,7,5,6,5,4,4,6,4,5,1,5,3,6,3,5,4,2,4,3,3,4,4,5,4,6,6,4,4,11:27:29,2.6,2,7,2,3,2,2,3,3,3,3,4,4,5,8,7,7,8,8,8,8,4.83333333333333,2.72727272727273,4,4,4,4,4,1,1,1,2,1,4,1,2,1,1,4,4,1,2,2,2,3,2,4,2,3,2,4,2,1,3,2,1,2,2.38461538461538,1,2,4,4,2,2,2,1, ,1, ,2,2,1, ,1, ,1, , ,1,1, ,1, , , , , , , , , , ,7,4,4,4,5,5,5,5,1,2,4,3,2,2,3,4,2,5,4,3,1,3,5,5,1,3,3,3,2,1,3,2,2,4,2,1,3,4,3,3,3,3,1,3,5,4,2,1,5,4,1,3,2,2,2,4,2,2,3,4,3,5,4,3,5,4,3.69230769230769,4,5,4,3,3,3,3,4,4,4,4,3,3,4,36.3,36.1,2,36.2,1,10,1,1,1.84240462978995,1.39810821051652,Bamberg
1976,1,1,1,2,2,1,2,1,2,1,2,3,3,3,3,3,1.44444444444444,0,4.11111111111111,1.44444444444444,69,1.77777777777778,10,1.45454545454545,1,2,1,1,1,5,1,2,1,2,1,2,1,1,1,1,1,1,1,1,1,1,1,1,1,1,1,1,1,1,1,6,1,4,6,1,2,11:42:22,3,2,8,5,5,5,4,5,3,5,3,4,3,4,6,5,1,5,5,5,29,2.5,1.09090909090909,2,1,1,1,1,1,1,1,1,1,1,1,3,1,2,1,1,1,1,2,1,3,4,5,3,5,4,4,4,5,5,5,3,4,4.15384615384615,2,1,1,3,3,4,4,4,2,4,3,3,2,2,1,1, ,3,2,8,3,1, ,1, , , , , , , , , , ,3,3,2,2,3,2,2,9,1,3,3,3,5,2,1,2,2,4,1,1,4,5,5,2,3,5,5,4,4,3,3,3,1,1,2,3,3,4,3,2,3,2,1,1,4,2,3,2,2,2,4,2,1,1,5,5,4,4,2,1,2,3,2,2,1,1,2.07692307692308,2,2,3,2,2,1,2,2,2,1,3,3,3,2,36.1,36.1,2,36.1,1,-1,1,1,-1.21235952322965,-1.00904506484726,Bamberg
1985,4,3,1,4,3,4,4,2,2,4,4,2,2,2,3,2,1.77777777777778,1,4.88888888888889,2.22222222222222,79,2.16666666666667, ,3.18181818181818,1,5,2,1,2,1,2,1,2,1,1,2,2,2,2,3,1,1,1,2,1,4,2,5,1,2,4,6,1,1,1,1,1,2,2,2,1,9:38:21,2.2,2,0,5,5,5,5,5,5,5,4,5,5,5,6,2,2,1,1,5,32,6.33333333333333,2.54545454545455,4,4,4,3,4,1,1,1,1,1,4,1,2,4,2,3,2,2,2,2,1,1,4,1,1,4,1,4,1,2,3,1,3,4,2.30769230769231,1,2,1,2,2,4,4,2,2,6,4,5,3,2,1,2,1,3,8,5,1,2,1,1, , , , , , , , , , ,7,7,6,6,6,6,7,11,1,2,4,3,3,1,2,4,2,5,4,1,2,4,5,5,4,2,2,4,3,3,2,2,2,2,2,1,4,4,2,4,1,1,1,5,4,2,4,2,3,4,3,4,1,4,5,1,1,1,2,4,1,1,1,1,2,1,3.84615384615385,2,5,5,3,1,3,4,5,4,4,5,4,4,5,36.08,36.03,2,36.055,1,9,1,1,-.957795843811354,-.617182903741529,Bamberg
1959,2,2,3,2,4,2,3,1,1,3,2,3,1,1,2,3,3.61111111111111,0,4.66666666666667,1.11111111111111,90,2.05555555555556, ,2.27272727272727,1,7,4,1,4,5,6,1,5,7,1,1,5,4,1,5,5,2,1,1,2,4,1,4,1,2,2,2,1,1,1,1,1,6,4,1,2,10:44:42,2,2,13,4,5,4,5,5,5,4,5,5,4,4,6,5,5,2,2,4,31,4.66666666666667,1.27272727272727,4,1,1,1,1,1,1,1,1,1,1,1,1,1,1,2,1,1,1,1,1,2,5,2,3,5,1,2,2,2,4,4,4,4,3.07692307692308,1,2,1,3,3,4,4,2,2,8,4,3,1,2,1,1, ,3,6,8,1,1, ,1, , , , , , , , , , ,6,5,3,2,6,6,6,9,1,3,3,4,5,2,1,2,2,5,3,4,5,5,4,4,5,5,5,5,2,2,4,3,1,2,2,3,3,4,4,2,5,3,3,3,4,4,1,2,3,4,3,2,2,3,4,5,4,3,3,3,2,3,2,2,3,4,3.15384615384615,2,5,5,3,3,3,3,4,2,2,4,4,2,3,36.5,36,2,36.25,1,-2,1,1,.442304392989297,-.72914352120031,Bamberg
1967,2,2,1,2,2,3,2,2,3,2,2,3,3,2,2,2,3.16666666666667,2,4.11111111111111,3.11111111111111,46,3.05555555555556, ,2.09090909090909,1,4,3,2,3,3,5,2,2,5,3,2,2,5,3,5,2,4,2,2,2,5,4,2,4,2,2,2,2,3,3,3,2,5,6,3,3,12:04:12,2.4,2,0,3,4,4,4,4,3,5,5,4,4,5,7,4,2,5,6,6,19,4.83333333333333,1.90909090909091,3,2,3,2,1,1,2,2,2,1,2,3,2,2,4,2,4,3,4,4,1,3,4,3,3,2,3,2,4,4,2,3,3,3,3,2,2,2,1, ,2,2,2,2,1, ,5,2,1, ,1, ,3,1,8,3,1, ,1, , , , , , , , , , ,6,5,5,5,4,4,5,6,1,1,3,2,5,3,3,2,3,4,3,2,2,4,5,4,4,4,3,3,4,3,4,3,2,2,3,4,2,3,4,1,4,4,2,3,3,2,3,3,2,3,4,2,2,1,4,4,4,2,4,3,2,4,3,3,2,3,2.76923076923077,3,3,3,4,2,3,2,3,4,2,3,3,2,2,36,36,2,36,1,5,1,1,.102886153764896,.278502035928717,Bamberg
1991,2,2,2,2,2,2,2,2,1,1,4,2,2,2,2,5,2.33333333333333,0,4.33333333333333,2.77777777777778,70,2.66666666666667, ,2,1,3,2,1,2,2,5,3,2,5,1,5,2,2,1,1,1,3,1,1,1,2,1,1,7,1,7,7,2,1,1,1,1,5,6,1,2,11:07:08,2.6,2,4,3,5,5,4,5,4,4,4,4,4,5,7,5,5,5,5,5,13,3.5,2.72727272727273,4,4,4,4,4,1,1,1,1,2,4,2,4,2,3,2,1,4,4,3,1,3,4,4,4,2,4,4,4,4,5,4,4,4,3.84615384615385,2,2,1,1, ,4,2,4,2,4,3,5,3,1, ,2,4,1, , ,2,1, ,1, , , , , , , , , , ,4,2,5,4,3,3,3,7,1,1,4,2,4,4,2,3,4,4,4,2,3,4,2,4,2,5,5,4,4,2,4,3,1,1,1,3,2,4,4,2,4,4,2,2,4,1,2,2,2,3,2,4,2,1,4,4,4,4,4,2,4,4,4,3,2,4,2.76923076923077,3,2,5,2,2,2,3,3,3,3,4,4,2,2,35.7,36,2,35.85,1,-3,1,1,-.533523044780854,-.113360125177016,Bamberg
1988,2,2,2,2,2,2,2,1,3,1,1,2,1,1,3,1,1.05555555555556,0,4.44444444444444,1.33333333333333,81,1.27777777777778, ,1.81818181818182,1,1,1,1,1,1,1,1,1,2,1,1,1,1,1,1,1,1,1,1,1,1,1,1,1,1,1,1,1,1,1,2,1,2,2,1,3,11:23:30,1.6,2,2,3,5,5,4,4,4,5,5,5,3,4,7,6,4,3,3,4,13,3.16666666666667,1.27272727272727,2,2,1,1,1,1,1,1,1,1,2,1,4,1,1,1,1,1,1,1,1,1,2,2,2,5,1,1,1,5,2,2,3,2,2.23076923076923,2,2,1,2,2,4,2,4,1,1, ,6,1,1, ,1, ,1, , ,1,1, ,2,Krabbelgruppe, , , , ,5, , , , ,3,3,4,4,3,2,3,6,1,4,5,4,4,2,4,5,1,5,3,2,3,4,4,5,4,5,2,5,1,2,4,1,1,1,1,1,4,5,2,3,1,1,2,1,4,3,3,2,3,2,5,4,3,3,3,3,3,3,2,2,5,3,3,2,1,1,3.07692307692308,2,3,3,3,4,3,2,3,4,3,3,3,3,4,35.6,36,2,35.8,1,9,1,1,-1.509350482551,-1.51286784341177,Bamberg
1951,1,2,1,2,1,3,4,2,4,2,2,4,4,1,1,1,1.77777777777778,0,4.33333333333333,2.66666666666667,59,2.94444444444444, ,2.18181818181818,1,1,2,1,1,1,3,1,1,1,2,1,6,5,1,1,1,2,1,1,2,7,2,1,1,1,2,2,2,6,2,2,1,7,6,3,5,9:58:08,2.2,2,0,4,5,5,5,4,2,5,4,5,4,4,7,6,1,6,3,7,28,4,1.09090909090909,1,2,1,1,1,1,1,1,1,1,1,2,4,3,4,2,1,2,3,3,1,4,3,2,2,2,2,4,3,4,4,5,2,4,3.15384615384615,1,2,1,3,3,1, ,1, ,7,2,7,2,2,1,1, ,1, , ,2,2,8,2,Telefonseelsorge,Seniorenheim, , , ,7,2, , , ,7,3,5,4,2,3,3,7,2,5,4,5,3,2,1,5,2,5,4,1,5,4,4,5,4,4,4,2,1,3,4,1,1,5,4,1,5,5,1,1,1,4,1,4,4,2,4,4,1,1,3,1,1,1,3,4,2,1,1,1,1,1,1,1,3,1,2.30769230769231,2,3,3,3,1,2,2,3,3,2,3,2,1,2,35.3,35.9,2,35.6,1,2,1,1,-.957795843811354,.166541418469936,Bamberg
1988,2,2,3,2,2,1,2,2,3,1,1,1,4,2,3,2,1.72222222222222,0,3.22222222222222,1,87,2.05555555555556, ,1.90909090909091,1,4,1,2,2,2,1,1,2,2,1,2,1,3,1,2,2,1,1,1,2,2,2,2,2,2,1,2,3,3,1,1,1,4,4,2,2,10:35:08,2.4,2,1,4,3,4,3,4,3,2,2,4,4,4,4,5,1,1,2,1,32,3,1.45454545454545,2,1,2,2,2,1,1,1,1,1,2,1,1,1,1,1,1,1,1,1,1,4,4,5,4,5,4,3,4,4,4,5,4,4,4.15384615384615,1,2,2,1, ,4,4,4,1,5,4,7,4,1, ,1, ,3,1,6,7,2,3,2,Klettergruppe, , , , ,1, , , , ,4,2,3,4,3,2,3,8,2,5,1,5,5,1,1,3,1,4,2,4,2,5,4,5,4,3,5,4,2,3,4,3,1,3,3,4,4,2,1,2,1,4,1,1,4,1,4,2,2,4,3,4,4,4,3,4,2,4,3,3,4,3,4,4,4,1,2,2,2,2,1,3,2,3,2,2,3,1,2,1,2,35.6,35.5,2,35.55,1,1,1,1,-1.0002231237144,-.72914352120031,Bamberg
1977,2,4,5,4,2,2,4,5,4,2,2,2,2,2,4,2,4.33333333333333,0,4,2.33333333333333,79,4.66666666666667,15,3.27272727272727,1,6,2,6,3,3,3,3,6,5,6,5,2,6,2,7,5,6,2,7,6,7,3,2,2,2,5,5,6,2,6,7,3,7,6,2,6,9:37:27,2.4,2,3,4,4,4,3,4,5,4,5,5,2,5,7,3,2,5,7,4,44,3.16666666666667,2.45454545454545,5,4,3,3,2,1,2,2,2,1,2,2,4,2,4,1,1,2,1,4,1,1,5,5,4,4,3,4,4,2,4,4,5,1,3.53846153846154,2,1,1,4,4,4,4,4,2,2,2,5,5,1, ,1, ,2,2,6,6,2,8,2,Sportverein, , , , ,4, , , , ,3,5,4,2,3,2,3,9,4,4,5,4,3,2,4,2,2,5,4,2,2,5,4,5,2,3,4,3,4,3,1,4,2,2,3,2,3,4,3,2,2,4,4,1,4,3,1,2,4,3,3,2,2,3,3,5,2,2,4,1,3,4,4,2,2,5,2.92307692307692,4,2,3,1,1,3,4,4,2,3,3,3,4,4,35.1,35.1,2,35.1,1,-2,1,1,.993859031728947,1.90193098908104,Bamberg
 , , , , , , , , , , , , , , , , , ,0,4,3.33333333333333,71, , , , , , , , , , , , , , , , , , , , , , , , , , , , , , , , , , , , , , , , ,10:31:40, , ,1.5,4,3,4,4,5,5,3,2,5,5,5,7,5,4,3,3,6,14,5,2.90909090909091,4,4,4,4,3,1,4,1,2,1,4,4,4,2,4,3,2,3,4,4, ,2,4,4,2,4,4,2,2,4,4,4,4,3,3.30769230769231, , ,2,1, ,4,4,4,1,2,2,7,6, , , , , , , , , , , , , , , , , , , , , ,5,5,5,5,5,5,5,5,2,1,2,2,5,4,2,1,4,3,2,1,3,4,2,2,5,5,5,5,2,2,2,2,1,2,1,4,1,3,3,1,4,2,3,2,2,1,2,2,1,2,4,1,3,2,4,4,5,3,4,2,2,3,3,4,3,4,2.46153846153846,3,3,3,2,2,2,2,3,2,2,3,3,2,3,36.8, , ,36.8,1,2,1,1, , ,Bamberg
 ,2,2,1,2,2,2,3,2,2,2,3,2,2,2,2,2, ,0,4.66666666666667, , , , ,2.09090909090909, , , , , , , , , , , , , , , , , , , , , , , , , , , , , , , , , , , , , ,16:19:46,2, ,12, ,5,5,5,5,5,4,4,5,4, , , , , , , ,16,3.5, , , , , , , , , , , , , , , , , , , , , , , , , , , , , , , , , , , , , , ,1,1, ,4,2,4,4,3,3,5,4,1, ,2,4,1, , ,2,1, ,1, , , , , , , , , , ,4,4,4,3,3,3,5,7,1,2,4,2,4,4,2,2,4,4,4,1,2,4,3,4,3,5,4,4,4,2,4,4,1,1,4,2,1,5,5,4,4,4,2,3,4,2,2,2,2,3,3,4,2,1,4,2,4,4,4,4,4,3,4,4,2,3, , , , , , , , , , , , , , , ,36.3, , ,36.3,1, ,1,1, , ,Bamberg
 , , , , , , , , , , , , , , , , ,5.27777777777778, , , , ,3.83333333333333, , , ,5,5,5,5,6,5,5,5,5,6,5,6,6,6,6,6,5,3,4,3,4,3,3,4,2,5,5,3,4,4,4,2,5,4,5,5,10:10:20, , , ,3, , , , , , , , , ,4,6,7,5,4,1,1,0,3.16666666666667, , , , , , , , , , , , , , , , , , , , , , , , , , , , , , , , , , , , , , , , , , , , , , , , , , , , , , , , , , , , , , , , , , , , , , ,4,4,4,2,3,2,3,0,0,4,4,2,5,2,1,2,4,1,2,2,3,4,4,3,3,5,4,4,2,4,4,3,1,4,2,4,1,3,3,1,4,2,1,5,4,2,1,2,3,2,5,4,3,3,2,4,4,4,3,3,4,4,3,3,1,4,3.69230769230769,4,3,3,4,4,4,3,4,4,4,4,4,3,4,36.3, , ,36.3,1, ,1,1,1.7151227900808,1.06222635814018,Bamberg
1994,2,2,1,2,2,1,3,2,2,1,2,1,2,1,3,1,3.88888888888889,1,3.33333333333333,3.22222222222222,65,2.33333333333333, ,1.81818181818182,1,5,4,3,4,4,4,5,6,4,2,3,2,5,5,5,2,5,2,3,2,3,1,2,2,4,2,5,2,2,2,2,2,3,2,1,2,21:02:23,1.6,2,0,2,4,2,4,3,3,4,2,4,4,5,8,6,3,6,5,5,22,5,2.63636363636364,2,3,2,4,3,2,3,4,2,2,2,3,4,2,4,3,2,4,3,4,1,1,2,3,1,2,2,2,2,4,3,1,3,2,2.15384615384615,2,2,2,1, ,4,2,4,1,3,1,4,3,1, ,2,6,3,8,1,5,1, ,1, , , , , , , , , , ,4,6,5,6,5,4,4,8,3,4,5,3,4,2,5,2,2,4,5,1,2,2,4,5,2,5,3,4,2,2,4,3,2,2,3,2,4,3,3,3,4,3,4,4,4,3,3,2,4,4,2,4,3,2,3,4,2,4,4,4,4,3,3,3,1,3,3.07692307692308,3,4,4,3,4,2,3,3,3,3,4,3,2,2,36.5,37.1,2,36.8,1,3,1,1,.698148838293224,-.694142373509155,Zurich
1995,3,4,2,3,3,4,4,4,2,2,4,1,2,2,4,2,3.5,0,4.33333333333333,2.88888888888889,88,2.94444444444444, ,3.18181818181818,1,5,3,3,4,4,3,6,3,4,3,4,5,3,3,2,3,3,2,2,2,3,2,2,3,3,3,3,3,5,2,4,2,5,3,3,3,20:34:34,2.2,2,2,3,5,5,5,4,4,4,4,4,4,4,5,6,4,4,4,5,35,6,2.90909090909091,4,4,3,4,2,2,3,4,2,2,2,4,4,2,4,2,1,3,2,4,1,3,4,3,3,3,2,2,3,4,4,3,3,2,3,2,2,2,1, ,4,4,4,1,5,3,4,4,1, ,2,7,1, , ,2,1, ,2,Chor,Uni,Familie,Freunde,WG,6,7,3,3,1,4,7,7,6,6,6,6,8,2,4,2,2,5,4,2,2,1,2,2,2,2,4,3,4,4,4,3,4,4,4,4,3,2,2,4,4,3,4,2,1,3,4,2,4,4,2,4,2,2,3,3,3,4,2,4,4,3,4,4,4,4,4,3,3,3,3,2.61538461538462,2,3,4,3,2,2,2,4,2,2,3,4,2,3,36.1,36.1,4,36.1,1,-2,1,1,.371228370275986,.00653310469185101,Zurich
1986,3,3,3,3,3,3,3,3,3,3,3,3,3,3,3,3,4,0,3,3,63,4, ,3,1,4,4,4,4,4,4,4,4,4,4,4,4,4,4,4,4,4,4,4,4,4,4,4,4,4,4,4,4,4,4,4,4,4,4,4,4,19:48:57,3,2,0,4,3,3,3,3,3,3,3,3,3,1,1,4,4,4,4,4,7,3.66666666666667,3,3,3,3,3,3,3,3,3,3,3,3,3,3,3,3,3,3,3,3,3,2,3,1,3,3,3,3,3,3,3,3,3,3,3,2.84615384615385,1,2,2,1, ,4,4,5, ,1, ,1,1,1, ,1, ,1, , ,1,1, ,1, , , , , , , , , , ,7,3,3,3,3,3,3,4,1,3,3,3,3,3,3,3,3,3,3,3,3,3,3,3,3,3,3,3,3,3,3,3,3,3,3,3,3,3,3,3,3,3,3,3,3,3,3,3,3,3,3,3,3,3,3,3,3,3,3,3,3,3,3,3,3,3,3,3,3,3,3,3,3,3,3,3,3,3,3,3,3,37,37,4,37,1,4,1,1,.79155468629815,1.21679074885722,Zurich
1994,2,3,1,4,4,4,3,2,4,2,4,1,1,2,4,3,1.33333333333333, ,3.33333333333333,2.33333333333333,76,2.94444444444444,15,3,1,1,1,1,1,1,4,2,2,1,1,1,1,1,1,1,1,2,1,4,3,3,6,4,4,4,2,2,2,2,1,2,2,2,4,4,2,19:46:38,2.2,2, ,3,2,3,3,3,4,4,3,4,4,4,3,3,2,2,1,2,20,5.16666666666667,2,3,3,2,3,1,1,1,2,2,2,2,2,5,1,5,2,1,1,1,3,1,2,1,4,2,2,2,2,3,5,2,2,2,3,2.46153846153846,2,1,1,1, ,4,4,4,1,8,5,7,7,2,1,2,8,1, , ,1,1, ,1, , , , , , , , , , ,5,5,6,5,5,5,3,8,3,2,4,2,4,1,1,2,2,3,2,2,5,5,5,2,4,4,5,2,2,5,2,2,1,1,3,3,3,4,2,2,4,1,1,1,4,1,2,4,2,4,3,2,2,3,2,4,4,4,1,4,2,1,2,1,3,4,3.07692307692308,3,5,3,2,3,2,2,4,2,3,5,4,2,4,35.84,35.88,2,35.86,1,-2,1,1,-1.45018566582006,.00653310469185101,Zurich
1992,4,4,3,4,2,2,4,2,3,4,1,1,2,3,2,2,2.88888888888889,0,3.33333333333333,2.77777777777778,91,4.72222222222222, ,3,1,2,2,2,2,5,1,1,3,7,2,7,4,3,5,1,2,2,1,3,5,6,4,5,5,4,4,5,6,4,6,6,4,6,6,3,3,15:23:54,2,2,0,4,4,4,4,4,3,3,2,3,3,3,3,2,3,1,2,2,18,2.66666666666667,2.18181818181818,2,2,2,2,2,3,2,2,3,2,2,3,3,3,4,2,2,2,4,2,2,3,4,3,3,4,2,2,3,3,2,2,3,3,2.84615384615385,1,2,2,1, ,4,4,5, ,2,1,8,8,1, ,2,8,1, , ,4,1, ,1, , , , , , , , , , ,2,4,3,3,2,2,2,6,3,4,5,3,3,2,2,4,2,4,4,3,3,3,4,3,4,4,3,3,2,2,3,3,2,2,2,3,4,4,4,4,2,2,3,4,3,3,3,3,4,2,3,3,3,3,3,3,4,3,2,3,2,3,2,2,2,2,2.61538461538462,3,2,3,2,2,2,3,3,3,3,3,4,3,2,36.5,36.3888888888889,2,36.4444444444444,1,3,1,1,-.142503793751104,2.04486176854932,Zurich
1984,5,5,5,1,5,5,5,5,5,5,5,1,5,1,5,1,2.33333333333333,3,5,5,78,4.72222222222222, ,4.63636363636364,1,2,2,2,1,2,2,1,1,7,2,6,3,3,2,1,2,2,1,3,6,2,7,2,1,1,6,6,7,5,6,5,2,6,7,7,6,14:10:59,2.6,2,3,4,5,5,5,5,5,5,5,5,5,1,1,7,8,8,8,8,18,6.5,5,5,5,5,5,5,5,5,5,5,5,5,5,5,5,5,5,5,5,5,5,2,1,1,1,1,5,1,5,1,1,5,1,1,5,2.23076923076923,2,2,5,8,8,3,2,2,4,3,1,1,1,1, ,1, ,1, , ,1,1, ,1, , , , , , , , , , ,4,7,7,7,7,7,7,7,1,2,2,2,2,2,2,2,2,5,5,5,5,5,5,5,5,5,5,5,5,5,5,5,5,5,5,2,5,5,5,5,5,5,5,5,5,5,5,5,5,5,5,5,5,5,2,2,2,2,2,2,2,2,2,3,3,3,2.84615384615385,5,5,5,1,1,1,1,5,1,1,5,5,1,5,37,38,4,37.5,1,9,1,1,-.609533033775731,2.04486176854932,Zurich
1987,2,2,1,2,1,2,2,2,2,3,4,2,1,2,3,1,3,0,1.55555555555556,1.77777777777778,84,3.55555555555556, ,2.09090909090909,1,2,2,2,3,4,3,1,2,2,4,2,4,4,5,3,2,5,4,3,3,5,3,5,2,3,3,3,3,3,3,3,2,7,7,2,4,11:54:07,1.8,2,0,4,1,2,2,2,1,1,1,2,2,5,7,7,5,6,6,7,26,3.83333333333333,1.36363636363636,2,2,1,3,1,1,1,1,1,1,1,2,2,1,2,2,1,3,1,2,2,4,5,4,3,2,4,4,4,4,5,3,4,4,3.84615384615385,2,2,2,1, ,4,1,5, ,1, ,7,7,1, ,1, ,1, , ,2,2,8,2,Deutschtreff für Asylsuchende, , , , ,7, , , , ,6,3,4,3,3,4,4,5,2,4,3,4,4,1,3,3,1,4,3,1,3,4,4,5,3,4,4,4,1,3,3,1,1,5,3,2,4,3,3,3,3,3,1,3,4,1,4,2,4,2,2,2,2,4,4,4,4,4,4,4,4,3,3,3,2,3,2.38461538461538,2,3,3,2,2,2,2,3,3,2,2,4,2,3,36.2,36.1,2,36.15,1,6,1,1,-.0490979457461784,.707208582892856,Zurich
1991,1,3,4,2,1,3,1,2,1,2,1,1,2,1,3,1,2.66666666666667,0,4.66666666666667,3.88888888888889,72,1.77777777777778, ,1.90909090909091,1,2,1,1,1,4,6,1,1,1,2,7,1,6,4,1,5,2,2,3,2,1,2,1,2,1,2,2,1,1,1,1,4,1,3,2,2,11:51:48,1.6,2,6,3,5,4,5,4,4,5,5,5,5,5,8,7,7,7,6,7,11,6.33333333333333,3.45454545454545,5,2,4,4,5,3,3,2,2,4,4,4,4,4,4,4,3,4,3,5,1,2,2,3,1,5,1,2,1,1,4,1,2,2,2.07692307692308,2,2,2,1, ,4,2,5, ,3,3,3,2,1, ,2,6,1, , ,3,1, ,1, , , , , , , , , , ,6,7,7,7,6,5,6,6,2,1,2,2,5,5,4,3,5,2,4,1,5,5,4,3,4,4,5,5,5,4,4,3,3,2,3,4,3,2,4,3,4,5,3,3,4,3,2,1,4,2,4,4,5,1,3,4,5,5,5,1,4,4,5,5,2,3,2.76923076923077,4,3,5,1,2,2,2,3,3,2,3,3,3,3,36,36.3,2,36.15,1,5,1,1,-.329315489760955,-1.33112008096461,Zurich
1982,3,4,3,3,3,3,4,4,3,3,3,2,3,3,2,3,4,0,2.88888888888889,2.77777777777778,74,4.11111111111111, ,3.27272727272727,1,3,4,4,5,3,3,5,4,3,3,4,4,4,5,4,4,5,5,4,4,4,4,4,4,3,4,4,5,6,4,4,3,5,4,4,4,11:42:50,2.6,2,0,4,3,3,2,3,3,3,3,3,3,3,3,5,4,4,5,5,17,4.66666666666667,2.90909090909091,2,3,3,3,3,3,2,3,4,3,3,3,2,3,3,3,3,3,3,2,2,3,3,3,2,4,2,3,4,3,3,4,3,3,3.07692307692308,1,2,2,1, ,4,2,5, ,1, ,4,2,2,1,1, ,3,1,8,2,1, ,1, , , , , , , , , , ,3,5,5,5,5,5,4,6,0,2,4,4,2,1,5,5,1,5,5,4,2,3,5,4,4,4,3,4,4,3,4,4,2,3,3,1,4,5,2,4,2,4,2,4,4,3,3,4,3,3,3,3,4,4,4,3,3,3,4,4,3,3,3,4,3,3,2.76923076923077,3,3,3,3,3,2,3,3,2,2,4,3,2,3,36.43,36.05,2,36.24,1,3,1,1,.79155468629815,1.34418629034832,Zurich
1993,2,2,3,2,3,4,3,2,2,3,5,2,2,2,3,2,3.44444444444444,0,4.11111111111111,2.88888888888889,69,2.77777777777778, ,2.81818181818182,1,5,5,5,2,4,5,4,5,4,2,5,2,1,2,2,2,4,3,4,1,2,3,5,4,4,2,6,1,2,1,1,3,2,2,4,3,11:37:27,2.2,2,0,3,4,5,4,4,4,4,4,4,4,5,6,5,3,5,5,5,20,4.33333333333333,2.27272727272727,3,1,3,1,3,1,3,1,3,3,3,3,4,1,3,3,1,4,3,4,1,2,2,3,3,3,1,1,3,2,3,4,4,2,2.53846153846154,2,2,1,1, ,4,4,4,2,8,3,5,3,2,1,2,8,3,1,4,1,1, ,1, , , , , , , , , , ,4,4,4,4,5,5,4,9,2,3,4,4,4,2,4,2,2,5,4,4,2,4,4,4,4,3,3,3,4,3,4,4,2,2,4,1,5,5,2,4,3,4,1,1,3,2,3,2,4,3,4,4,4,3,4,4,4,3,5,2,3,3,5,3,4,4,3.61538461538462,4,4,5,3,3,3,4,3,3,4,4,4,4,3,36.6,36.6,2,36.6,1,0,1,1,.324525446273523,-.184560207544787,Zurich
1991,3,2,1,2,1,2,2,2,1,2,2,1,1,4,3,1,2.66666666666667,0,2.66666666666667,1.44444444444444,76,2.5, ,1.81818181818182,1,1,2,2,5,2,2,2,6,2,2,2,5,1,1,1,5,2,5,1,1,6,2,1,1,1,5,5,2,2,1,1,1,6,5,2,2,11:33:33,2,2,0,4,3,2,4,3,4,1,1,3,3,3,3,5,2,2,3,4,13,4.16666666666667,2,4,1,3,1,5,1,2,1,1,1,2,1,1,1,1,2,1,2,3,1,2,1,4,2,4,5,1,2,1,4,1,4,5,3,2.84615384615385,1,2,2,1, ,4,2,5, ,4,3,7,4,1, ,2,3,1, , ,1,1, ,2,Meditationsgruppe, , , , ,2, , , , ,6,3,5,3,5,3,6,6,1,5,3,3,5,1,2,4,1,2,1,2,1,3,4,2,4,5,5,5,1,4,5,2,1,4,2,4,4,2,4,1,1,3,2,4,1,1,5,1,1,1,4,1,1,5,3,5,5,5,4,3,1,2,4,2,1,1,2.23076923076923,2,2,2,2,2,2,3,3,2,2,2,4,3,2,35.9,36.2,2,36.05,1,-2,1,1,-.329315489760955,-.503049061272517,Zurich
1980,3,3,1,3,2,3,3,2,2,2,1,2,3,2,2,2,3.77777777777778,0,3.88888888888889,2.33333333333333,76,3.5, ,2.27272727272727,1,4,3,4,4,4,4,3,4,4,5,4,4,5,2,4,5,4,1,2,2,5,3,5,2,3,3,4,2,3,3,5,3,6,5,3,4,11:27:16,2.2,2,3,2,5,4,4,4,3,3,4,4,4,3,3,7,2,4,3,3,6,3.66666666666667,1.72727272727273,3,2,2,2,1,1,2,1,1,2,2,2,4,2,4,3,1,1,3,1,2,4,2,3,2,4,3,3,3,3,4,2,3,4,3.07692307692308,2,2,4,1, ,4,1,4,1,3,1,4,1,1, ,1, ,1, , ,1,1, ,1, , , , , , , , , , ,4,4,4,3,4,3,4,6,0,1,3,1,4,3,2,3,4,3,3,1,2,4,3,4,4,4,3,3,2,3,4,3,2,3,3,4,2,4,5,2,2,3,5,4,4,3,2,2,2,3,4,2,2,2,4,4,3,4,3,4,3,3,4,3,3,2,2.76923076923077,3,3,3,3,2,3,3,3,3,3,3,4,2,2,36.9,36.6,2,36.75,1,4,1,1,.604742990288299,.64351081214731,Zurich
1991,2,2,2,2,2,2,3,2,2,2,2,3,2,2,3,2,2.55555555555556,0,4.44444444444444,2.44444444444444,71,2.5, ,2.09090909090909,1,5,3,2,2,4,2,2,2,2,2,3,2,3,2,2,2,4,2,2,2,4,2,2,3,2,2,2,2,2,2,3,2,4,4,2,3,11:25:12,2.4,2,5,5,5,5,5,5,5,4,3,4,4,5,5,4,5,3,2,5,23,3.66666666666667,2.45454545454545,4,3,2,3,2,1,2,2,2,2,4,2,2,2,4,2,2,2,2,4,1,2,4,4,2,4,2,3,3,4,4,4,3,3,3.23076923076923,2,2,2,1, ,4,4,5, ,8,6,4,3,2,6,2,8,1, , ,3,1, ,1, , , , , , , , , , ,2,4,4,4,4,4,4,7,3,2,2,2,4,4,2,1,2,4,2,3,4,4,3,3,3,4,4,4,4,4,4,4,1,1,2,4,2,2,2,2,2,3,3,4,3,4,2,2,3,3,3,3,2,2,4,4,2,4,4,3,4,4,4,3,3,2,2.53846153846154,3,3,4,2,2,2,2,3,2,2,3,3,2,3,36.7,36.6,2,36.65,1,8,1,1,-.42272133776588,-.503049061272517,Zurich
1993,1,4,2,3,2,2,4,2,2,2,3,3,2,1,4,3,5.11111111111111,0,4.33333333333333,2.88888888888889,66,4.44444444444444, ,2.45454545454545,1,6,6,6,6,6,6,6,6,6,4,2,4,4,5,7,3,6,3,6,3,6,4,5,4,2,5,5,3,3,5,5,5,6,6,3,4,11:18:18,2.6,2,7,3,5,4,5,4,4,5,4,4,4,5,7,5,4,2,5,6,11,5.16666666666667,2.27272727272727,4,4,4,3,2,1,1,1,1,2,2,3,4,2,4,2,1,2,4,4,2,2,1,3,2,2,1,2,1,3,3,1,2,2,1.92307692307692,1,2,2,1, ,4,4,5, ,5,1,5,4,1, ,2,3,1, , ,1,1, ,1, , , , , , , , , , ,6,5,5,5,6,4,5,6,1,4,3,2,5,4,2,2,4,4,4,2,1,4,4,5,3,4,3,3,2,3,4,4,1,2,2,4,1,5,5,2,2,3,1,2,4,3,1,2,4,3,4,4,1,2,4,2,1,2,1,3,5,2,2,4,3,2,3.53846153846154,4,3,4,3,4,4,4,3,3,4,4,4,2,4,35.2,36.4,2,35.8,1,12,1,1,1.7256131663474,1.72637291482159,Zurich
1981,2,2,1,2,2,3,2,2,3,2,3,3,2,1,3,2,3.55555555555556,7,4.77777777777778,2.44444444444444,70,2.77777777777778,4,2.18181818181818,1,4,4,4,4,4,5,4,3,4,4,4,4,3,2,2,4,3,2,2,2,6,2,3,2,2,2,2,2,2,1,2,2,7,6,1,4,11:07:06,2.2,2,5,3,4,5,4,5,5,5,5,5,5,4,7,5,2,4,5,6,30,4.83333333333333,2,4,2,3,4,1,1,1,1,1,1,3,2,4,3,4,1,2,3,1,2,2,1,3,4,2,3,2,1,4,4,4,3,4,2,2.84615384615385,2,1,4,1, ,4,4,5, ,8,5,3,3,1, ,2,3,3,8,8,1,1, ,1, , , , , , , , , , ,4,6,6,4,5,4,4,7,1,2,4,3,3,3,3,3,2,5,4,1,2,4,4,4,3,3,3,4,4,2,3,3,2,2,3,2,3,4,4,3,3,1,1,3,3,4,2,3,3,2,3,3,1,1,4,5,1,2,1,1,3,4,2,3,2,3,3.15384615384615,3,4,4,3,2,3,3,4,3,3,4,3,2,3,36.4,36.9,2,36.65,1,1,1,1,.417931294278448,-.184560207544787,Zurich
1983,2,2,2,2,2,2,3,2,2,2,2,4,2,2,3,2,2.55555555555556,2,3.88888888888889,3.33333333333333,76,2.11111111111111,.25,2.09090909090909,1,2,3,2,2,2,4,2,6,2,2,2,2,2,2,2,2,5,2,2,2,2,2,2,2,2,2,2,2,2,2,2,2,2,4,2,2,11:06:25,2.6,2,6,3,4,4,4,4,4,4,3,4,4,5,8,5,5,5,5,5,23,6.16666666666667,2.90909090909091,4,3,4,4,3,2,2,2,2,3,3,3,4,4,3,4,2,4,2,4,1,3,3,2,3,4,2,2,2,3,3,3,4,4,2.92307692307692,2,1,2,1, ,4,4,4,2,4,4,3,2,1, ,2,2,3,1,8,1,1, ,1, , , , , , , , , , ,7,6,6,6,6,6,6,8,1,3,2,4,4,2,4,2,3,4,3,3,3,4,4,2,4,5,5,3,3,3,4,4,2,2,3,3,2,3,2,4,4,4,4,2,3,2,4,2,3,2,4,2,2,2,4,4,4,4,4,2,3,4,3,4,2,3,2.84615384615385,3,3,3,3,2,2,3,3,3,3,3,4,3,3,36.5,36.7,1,36.6,1,4,1,1,-.42272133776588,-.948933456491339,Zurich
 , , , , , , , , , , , , , , , , , , , , , , , , , , , , , , , , , , , , , , , , , , , , , , , , , , , , , , , , , , , , , ,11:04:05, , , , , , , , , , , , , , , , , , , , ,0, , , , , , , , , , , , , , , , , , , , , , , , , , , , , , , , , , , , , , , , , , , , , , , , , , , , , , , , , , , , , , , , , , , , , , , , , , , , , , ,0,0, , , , , , , , , , , , , , , , , , , , , , , , , , , , , , , , , , , , , , , , , , , , , , , , , , , , , , , , , , , , , , , , , , , , , , , , ,36.6, , ,36.6,1, ,1,1, , ,Zurich
1994,2,2,1,2,2,2,2,2,2,2,2,3,4,2,3,2,1.94444444444444,0,4.22222222222222,3.11111111111111,76,2, ,1.90909090909091,1,2,2,2,2,2,2,2,3,2,1,2,2,2,2,2,2,2,1,2,2,2,2,1,1,2,2,2,2,2,2,2,1,5,3,1,2,11:01:21,2.8,2,1,4,4,4,4,5,5,5,3,4,4,4,5,5,4,5,5,4,29,4.16666666666667,2.63636363636364,4,3,3,3,3,2,2,2,2,2,3,3,4,2,4,2,3,4,3,3,1,3,4,3,2,3,4,4,2,4,4,2,3,3,3.15384615384615,2,2,2,1, ,4,4,4,4,7,4,7,6,1, ,2,5,3,1,8,1,1, ,1, , , , , , , , , , ,4,4,5,4,4,4,4,8,3,2,3,2,4,3,3,2,4,2,2,1,3,4,2,4,5,4,4,4,4,4,4,4,2,2,2,4,4,3,4,2,3,4,3,2,4,2,3,3,2,3,3,2,4,3,4,4,4,4,4,2,4,4,4,3,3,3,2.30769230769231,2,3,2,3,3,2,2,2,2,2,3,3,2,2,35.3,36.4,2,35.85,1,-1,1,1,-.936453501792969,-1.07632899798243,Zurich
1991,2,2,2,2,3,2,4,2,2,3,2,2,3,2,3,2,2.33333333333333,0,4.44444444444444,2.11111111111111,88,3.22222222222222, ,2.36363636363636,1,2,2,2,2,4,2,2,2,6,3,2,2,2,2,2,2,2,1,4,3,2,3,2,2,2,2,2,4,4,3,5,1,6,6,2,5,10:56:22,2.4,2,0,2,5,5,4,5,5,5,3,4,4,4,4,6,2,4,2,4,14,4.66666666666667,2.27272727272727,4,2,4,2,4,1,1,1,1,1,4,2,2,2,3,2,2,2,2,2,1,4,3,4,5,5,3,3,2,5,2,4,3,2,3.46153846153846,2,2,1,1, ,4,4,4,2,2,2,4,4,1, ,1, ,1, , ,1,1, ,1, , , , , , , , , , ,6,5,4,5,4,4,5,6,1,3,2,3,5,2,3,3,2,4,3,5,3,4,3,4,4,4,4,5,5,3,4,4,1,1,2,4,2,2,2,2,3,2,1,4,5,4,5,3,4,5,3,5,2,4,4,4,4,3,5,1,3,4,5,4,3,4,2.61538461538462,3,2,2,3,2,3,3,2,2,3,4,4,3,2,35.3,35.9,2,35.6,1,7,1,1,-.609533033775731,.325021958419581,Zurich
1978,2,2,1,2,3,2,4,2,2,2,4,2,2,2,3,1,2.11111111111111,0,4,3,59,1.88888888888889, ,2.36363636363636,1,2,3,3,1,1,2,2,1,3,2,6,1,5,1,1,2,1,1,1,1,5,1,1,1,1,2,2,1,1,1,1,1,5,5,2,2,10:55:02,2,2,27,5,4,5,4,5,5,3,2,4,4,5,8,7,4,7,6,3,20,2.16666666666667,2.90909090909091,4,2,4,4,4,2,2,2,2,2,4,2,4,2,4,4,2,3,2,4,1,3,3,1,4,5,2,5,2,4,4,3,1,4,3.15384615384615,2,2,1,3,3,4,1,4,1,1, ,5,3,1, ,1, ,1, , ,3,1, ,2,kynologischer Verein,unihockey club, , , ,6,2, , , ,3,3,2,2,1,2,2,6,1,1,2,2,5,2,1,2,3,2,2,1,2,5,5,5,4,4,4,3,2,3,4,2,2,4,4,4,2,2,4,2,2,4,4,1,4,3,2,2,2,2,2,4,4,4,4,4,5,4,4,2,3,4,2,2,2,2,2.53846153846154,3,3,3,2,2,2,2,3,2,2,4,3,2,3,36.5,36.6,2,36.55,1,2,1,1,-.796344729785581,-1.20372453947352,Zurich
1995,2,1,2,2,3,2,2,1,2,1,2,1,2,1,2,1,2.22222222222222,4,4.77777777777778,3.66666666666667,85,2.55555555555556, ,1.81818181818182,1,2,4,2,2,2,1,4,2,3,1,3,2,2,4,2,1,2,1,2,2,2,1,1,2,1,2,7,2,2,1,2,2,7,6,2,2,10:53:30,1.4,2,8,3,5,5,5,5,5,4,4,5,5,4,5,7,4,4,5,5,46,4.16666666666667,3.54545454545455,5,4,5,4,5,2,2,2,3,2,5,4,4,2,4,4,2,5,4,4,1,2,2,4,2,3,2,2,2,4,3,3,4,2,2.69230769230769,2,2,2,1, ,4,4,4,4,2,2,7,8,1, ,2,6,3,1,8,4,2,8,2,Blauring, , , , ,6, , , , ,5,4,4,3,4,5,4,9,4,2,4,3,4,4,4,2,4,4,4,1,4,5,4,4,4,5,5,5,5,4,4,4,1,1,2,2,3,4,4,3,2,4,2,3,4,3,2,4,4,2,3,4,4,2,4,5,4,4,4,4,3,4,3,3,2,4,2.38461538461538,2,3,3,2,2,2,2,3,3,2,3,3,2,2,36.9,36.9,2,36.9,1,10,1,1,-.702938881780656,-.439351290526971,Zurich
1959,1,1,1,2,1,1,1,1,1,1,1,3,3,3,3,2,1.5,0,4.22222222222222,1.55555555555556,75,1.77777777777778, ,1.09090909090909,1,1,1,1,2,2,2,1,1,1,1,1,1,2,1,2,4,1,2,1,2,2,2,2,4,1,1,1,1,1,2,1,1,4,4,1,1,10:45:44,2.8,2,0,5,5,5,5,5,5,4,4,2,3,2,2,4,2,3,2,3,25,2.16666666666667,2.54545454545455,3,2,3,4,3,1,4,2,3,1,2,1,2,2,2,1,1,1,2,2,1,5,5,4,4,4,5,3,5,5,4,5,5,3,4.38461538461539,2,2,1,4,4,1, ,2,2,6,5,8,5,2,1,1, ,1, , ,3,2,4,1, , , , , , , , , , ,2,2,3,3,1,2,2,8,2,3,2,1,5,1,2,2,2,1,1,2,2,3,3,4,4,3,3,2,2,2,2,2,2,2,2,5,2,2,2,2,1,2,1,3,3,3,3,4,2,2,4,2,2,3,4,2,2,3,4,2,3,4,3,3,4,3,1.53846153846154,1,1,2,1,4,2,2,1,1,2,1,3,1,1,35.8,36.2,2,36,1,8,1,1,-1.31007689381267,-1.33112008096461,Zurich
 , , , , , , , , , , , , , , , , , , , , , , , , , , , , , , , , , , , , , , , , , , , , , , , , , , , , , , , , , , , , , ,10:39:13, , , , , , , , , , , , , , , , , , , , ,0,2.66666666666667, , , , , , , , , , , , , , , , , , , , , , , , , , , , , , , , , , , , , , , , , , , , , , , , , , , , , , , , , , , , , , , , , , , , , , ,2,3,4,3,2,2,3,0,0, , , , , , , , , , , , , , , , , , , , , , , , , , , , , , , , , , , , , , , , , , , , , , , , , , , , , , , , , , , , , , , , , , , , , , , , ,36.3, , ,36.3,1, ,1,1, , ,Zurich
1993,2,2,2,2,2,2,2,2,2,2,2,1,2,2,4,2,1.72222222222222,0,4.44444444444444,3.44444444444444,68,2.88888888888889, ,2,1,2,2,1,1,1,5,1,2,2,1,2,1,1,1,3,1,3,1,3,1,1,4,1,4,2,3,3,1,2,1,2,5,7,7,3,2,10:39:10,2.2,2,5,4,4,4,5,5,5,4,3,5,5,3,3,3,2,2,2,2,10,6.5,2.90909090909091,5,4,4,4,4,1,1,1,2,2,4,4,4,2,4,4,2,2,4,5,1,3,3,4,3,4,3,4,4,3,5,4,5,3,3.69230769230769,2,2,2,1, ,2,2,4,1,2,2,7,3,1, ,2,6,1, , ,1,1, ,1, , , , , , , , , , ,5,7,7,7,7,6,6,7,2,1,2,1,5,5,3,2,4,1,3,2,2,4,3,3,3,2,2,3,3,3,3,3,2,2,1,5,1,3,5,1,5,4,3,4,4,4,2,1,4,4,4,3,2,1,3,3,3,2,2,4,4,2,3,3,1,2,2.46153846153846,2,4,2,3,2,3,2,2,2,2,3,5,2,3,36.7,36.4,2,36.55,1,7,1,1,-1.12326519780282,-.0571646660536952,Zurich
1993,2,2,2,2,4,3,4,2,2,2,2,2,2,2,4,4,3,8,4.22222222222222,2.88888888888889,76,2.44444444444444, ,2.45454545454545,1,3,2,2,5,3,1,5,5,2,2,3,5,1,2,3,3,2,5,5,2,3,2,2,2,1,2,6,1,1,2,2,1,3,2,2,5,10:36:22,2.8,2,0,4,5,4,5,5,4,5,2,5,3,5,7,5,6,2,3,5,21,6.16666666666667,3.36363636363636,5,4,4,4,4,2,2,2,2,4,4,4,4,2,4,2,2,4,2,2,1,2,4,5,3,2,2,4,2,3,4,4,4,3,3.23076923076923,2,2,2,1, ,4,2,4,1,7,1,6,6,1, ,2,8,3,1,8,1,1, ,1, , , , , , , , , , ,7,5,6,6,7,6,6,8,3,2,5,2,4,2,4,2,2,4,3,1,3,4,4,3,4,5,3,4,4,4,5,4,3,2,3,2,4,5,5,3,2,4,2,4,3,4,2,1,4,2,4,4,4,2,4,4,2,4,2,4,4,4,3,4,2,5,2.15384615384615,2,2,3,2,2,2,2,3,2,2,2,4,1,3,36.6,36.7,2,36.65,1,-1,1,1,-.0490979457461784,-.566746832018063,Zurich
1991,4,4,2,4,3,2,2,4,1,3,2,2,3,1,3,1,1.55555555555556,0,4.33333333333333,2.11111111111111,86,2.44444444444444, ,2.81818181818182,1,1,1,2,1,1,2,1,2,2,1,1,1,3,1,4,1,2,1,3,2,1,2,1,2,2,2,2,2,2,2,2,2,7,7,2,1,10:36:15,2,2,0,4,5,5,5,5,5,2,2,5,5,3,4,4,2,2,5,3,29,4,1.36363636363636,1,2,2,1,1,1,1,1,2,1,2,2,2,2,4,2,1,1,1,4,2,4,2,4,2,4,3,3,2,4,2,4,4,5,3.30769230769231,1,2,2,1, ,4,2,5, ,6,6,8,7,1, ,2,3,3,1,3,1,2,3,2,Pfadfinder, , , , ,5, , , , ,7,3,4,4,3,3,4,8,2,4,1,2,5,1,3,4,2,1,2,2,3,4,4,5,2,4,4,3,2,3,2,2,2,3,1,4,1,2,2,1,3,4,1,4,4,1,4,2,3,1,4,3,2,4,4,4,3,4,4,2,4,2,3,4,2,1,2.30769230769231,3,2,4,1,2,1,2,2,3,2,2,5,3,3,36.13,35.69,2,35.91,1,6,1,1,-1.26337396981021,-.566746832018063,Zurich
1968,1,1,1,2,1,2,2,1,2,2,2,1,1,2,1,1,1.33333333333333,0,4.11111111111111,1.44444444444444,69,1.77777777777778, ,1.54545454545455,1,2,1,1,1,1,2,1,1,1,1,2,1,1,1,2,1,3,1,1,1,5,1,1,1,1,1,1,1,1,1,2,1,5,5,1,2,10:35:54,1.2,2,0,2,5,5,4,5,5,5,2,4,2,5,6,4,2,2,1,3,10,2,2.36363636363636,4,4,4,4,4,1,1,1,1,1,1,1,1,1,1,1,1,1,2,4,1,4,4,5,3,3,5,5,3,4,5,5,5,4,4.23076923076923,2,2,1,1, ,4,4,4,1,3,2,8,1,1, ,2,6,1, , ,1,1, ,1, , , , , , , , , , ,2,1,3,2,2,2,2,7,2,1,4,1,5,5,2,3,5,5,3,1,4,4,4,4,4,4,4,4,2,3,3,2,1,3,4,2,1,3,3,2,4,2,5,4,3,3,3,2,2,4,2,3,2,3,3,5,5,4,2,2,1,3,3,2,3,2,2.15384615384615,1,3,3,2,1,2,2,2,4,2,3,5,1,2,36.55,36.9,3,36.725,1,4,1,1,-1.45018566582006,-1.33112008096461,Zurich
1997,2,2,4,2,3,3,4,2,2,4,4,2,4,2,4,2,2.55555555555556,0,2.66666666666667,3,76,1.83333333333333,5,2.90909090909091,1,3,2,2,1,1,3,2,3,6,2,2,1,3,2,6,1,5,1,2,1,5,1,1,1,2,1,1,1,1,1,1,1,4,5,3,1,10:29:23,2.8,2,0,3,3,3,3,3,3,3,2,2,2,3,3,4,2,4,2,1,20,4.66666666666667,3.09090909090909,4,4,4,4,4,2,2,2,3,2,3,2,4,4,4,3,2,3,2,3,1,3,3,2,4,4,3,4,3,4,4,4,4,3,3.46153846153846,2,1,2,1, ,4,2,4,2,2,2,6,6,1, ,2,8,3,1,5,1,1, ,1, , , , , , , , , , ,7,3,5,3,5,5,5,8,3,3,2,4,4,4,2,2,3,3,3,2,4,4,4,4,3,4,4,4,2,4,3,1,1,4,2,3,3,4,4,2,4,4,3,3,3,4,3,3,4,3,2,4,4,3,3,4,5,3,2,1,4,4,2,2,1,5,2.46153846153846,2,3,2,3,3,3,2,2,3,2,3,3,2,2,37,37,2,37,1,4,1,1,-.42272133776588,-1.26742231021907,Zurich
1988,2,2,1,2,2,2,2,2,2,2,2,2,2,2,4,2,3.77777777777778,0,4.22222222222222,2.44444444444444,63,3.05555555555556, ,1.90909090909091,1,6,5,3,5,4,5,1,5,5,2,5,3,3,2,5,2,5,2,2,2,6,3,3,3,5,3,2,1,3,1,2,3,6,5,3,2,10:23:56,2.4,2,0,3,5,5,4,4,4,4,4,4,4,3,4,5,2,2,2,2,28,3.83333333333333,2.45454545454545,4,2,4,4,2,2,1,1,2,2,3,2,4,2,4,2,2,2,2,2,1,3,4,4,3,3,4,5,2,4,5,2,3,3,3.46153846153846,2,2,1,1, ,4,4,4,4,5,3,5,3,2,1,2,8,3,1,8,3,1, ,2,Musikverein, , , , , , , , , ,3,4,3,5,5,3,3,9,2,2,4,3,4,4,4,2,4,4,4,1,2,4,3,4,3,4,4,3,2,3,3,3,1,2,3,1,3,5,5,2,2,4,2,3,3,4,2,2,4,3,4,4,2,2,4,4,3,3,4,2,2,4,3,4,2,4,3.15384615384615,4,3,3,3,3,3,3,3,3,4,3,4,2,4,36.1,36.2,2,36.15,1,7,1,1,.604742990288299,.133928646182942,Zurich
1994,1,2,4,3,2,4,2,4,2,2,4,2,2,1,3,1,5.83333333333333,0,4.22222222222222,3.22222222222222,71,3.83333333333333, ,2.72727272727273,1,6,7,7,5,7,7,5,6,6,7,2,7,3,6,5,7,5,7,5,2,5,2,5,3,4,4,4,1,3,3,5,3,6,5,3,6,10:20:41,1.8,2,4,2,4,4,4,4,4,5,5,4,4,5,8,6,6,6,5,4,15,5.33333333333333,3.09090909090909,5,4,4,4,2,1,1,3,4,4,2,3,4,4,4,2,2,3,3,4,1,2,4,3,2,3,3,4,4,4,5,3,2,5,3.38461538461538,2,2,2,1, ,2,2,4,4,4,1,5,5,2,1,2,8,1, , ,1,1, ,1, , , , , , , , , , ,6,5,6,5,5,5,6,8,3,5,2,2,5,4,3,3,3,2,3,1,4,4,3,3,3,5,5,3,4,3,3,4,3,2,3,4,2,3,3,2,4,4,4,3,4,5,3,2,4,4,3,4,4,2,4,4,3,3,4,3,4,4,3,5,4,4,3.30769230769231,3,5,5,3,2,3,2,4,3,2,5,4,3,3,37.19,37.08,2,37.135,1,8,1,1,2.33275117837942,1.02569743662059,Zurich
1995,4,4,2,3,4,4,4,4,2,2,4,2,2,2,3,2,5.16666666666667,0,4.77777777777778,2.55555555555556,72,3.66666666666667,2,3.36363636363636,1,5,6,5,6,6,6,6,6,6,5,5,4,5,2,6,6,6,2,4,3,6,4,3,2,2,3,5,3,2,3,4,4,6,6,3,3,10:05:11,2.2,2,2,3,5,5,5,5,4,5,4,5,5,5,8,4,2,2,4,8,28,6.5,2.54545454545455,4,4,2,4,4,1,1,2,2,2,2,2,4,4,2,2,2,2,2,3,2,3,2,3,2,5,4,3,3,4,3,3,2,2,3,2,1,2,1, ,4,4,3,1,4,2,7,4,1, ,2,8,3,7,8,1,1, ,1, , , , , , , , , , ,7,6,6,7,7,6,6,8,2,3,3,2,4,3,4,4,2,4,2,1,2,4,4,4,3,4,4,4,3,4,4,4,2,2,2,2,2,4,1,3,2,3,3,3,3,2,2,3,4,2,4,3,2,2,3,4,4,4,4,3,3,4,4,3,2,4,2.61538461538462,3,3,4,2,3,2,2,3,3,2,3,4,1,3,36.8,36.8,2,36.8,1,4,1,1,1.77231609034987,.834604124383948,Zurich
1992,3,1,4,1,1,2,2,1,1,1,3,1,1,1,1,1,3.05555555555556,0,3.77777777777778,2,64,2.33333333333333, ,1.81818181818182,1,5,2,1,3,3,5,2,2,2,3,7,1,5,3,3,5,1,2,1,1,3,2,2,1,1,2,7,3,2,2,3,1,7,1,1,2,10:02:20,1,2,2,5,5,1,5,5,1,4,4,4,5,4,6,7,5,6,6,7,24,5.33333333333333,3.36363636363636,3,4,4,3,4,3,4,4,2,2,4,3,4,1,2,2,1,2,1,2,2,4,5,3,4,5,3,4,4,2,5,4,2,4,3.76923076923077,2,2,2,1, ,4,1,5, ,3,3,5,5,1, ,2,4,3,4,6,3,2,1,1, , , , , , , , , , ,5,5,7,6,4,5,5,8,2,2,4,4,4,2,4,3,3,3,4,1,3,4,4,5,3,4,5,3,1,3,4,1,3,5,4,4,5,4,2,3,2,4,4,2,5,1,4,2,3,4,3,4,4,4,4,4,4,3,4,5,3,5,3,3,3,5,2.46153846153846,4,2,4,1,2,2,2,3,2,2,4,4,1,3,36.2,36.3,2,36.25,1,4,1,1,-.0023950217437159,-.694142373509155,Zurich
1990,2,2,1,4,3,1,4,2,1,3,2,2,2,1,2,2,1.72222222222222,0,3.66666666666667,3.11111111111111,60,2.22222222222222, ,2.27272727272727,1,1,1,1,1,1,3,1,1,1,1,7,2,5,1,1,1,1,1,1,1,4,1,2,1,1,2,7,1,1,1,2,1,7,5,1,1,9:58:21,1.8,2,1,3,4,4,4,4,3,5,2,4,3,4,6,6,3,3,2,4,10,5.66666666666667,3,3,3,3,3,3,3,3,3,3,3,3,3,4,2,4,3,3,1,4,4,1,3,1,3,2,2,2,2,2,2,1,3,2,3,2.15384615384615,2,2,2,1, ,4,2,4,1,5,1,5,2,1, ,1, ,1, , ,3,1, ,1, , , , , , , , , , ,5,5,6,5,7,6,6,6,1,2,3,1,5,1,4,3,2,1,3,3,3,4,4,4,4,4,3,3,2,3,2,2,2,3,4,4,1,3,2,1,4,4,3,3,1,1,2,4,3,2,3,2,2,3,3,4,3,3,2,4,2,2,2,2,1,3,3,4,3,3,2,3,3,2,4,3,4,3,4,3,2,36.09,36.02,2,36.055,1,1,1,1,-1.12326519780282,-.821537915000247,Zurich
1992,2,3,1,2,2,3,2,3,2,2,2,2,1,4,2,2,1.77777777777778,2,3.55555555555556,2.44444444444444,86,1.83333333333333,10,2.18181818181818,1,3,2,2,2,2,1,1,1,5,2,2,1,2,1,2,1,1,1,1,2,2,2,2,2,2,1,2,2,2,1,1,1,3,3,1,3,9:56:10,2.2,2,0,4,4,3,4,4,3,3,3,4,4,4,4,4,3,2,4,3,18,1,2.27272727272727,4,2,2,4,2,1,2,1,2,2,3,4,2,3,4,1,1,2,2,3,1,2,3,4,2,2,2,2,2,2,3,2,4,2,2.46153846153846,2,1,1,1, ,4,1,4,1,2,1,5,4,1, ,2,4,3,1,8,1,1, ,1, , , , , , , , , , ,1,1,1,1,1,1,1,8,0,4,5,3,3,1,2,1,1,5,3,1,4,4,4,4,4,3,2,3,1,3,3,2,2,4,2,1,3,4,2,3,3,2,1,4,4,1,5,2,2,4,4,2,3,4,4,4,3,2,4,4,2,2,4,3,1,1,2.07692307692308,2,2,3,2,2,2,2,2,2,1,3,4,2,2,36.1,36.4,2,36.25,1,6,1,1,-1.07656227380036,-1.26742231021907,Zurich
 , , , , , , , , , , , , , , , , , , , , , , , , , , , , , , , , , , , , , , , , , , , , , , , , , , , , , , , , , , , , , ,9:54:32, , , ,4, , , , , , , , , , , , , , , , ,0,3.66666666666667, , , , , , , , , , , , , , , , , , , , , , , , , , , , , , , , , , , , , , , , , , , , , , , , , , , , , , , , , , , , , , , , , , , , , , ,5,3,4,4,3,3,5,0,0,3,2,4,4,3,3,3,3,2,3,2,2,3,3,5,3,3,4,4,3,3,3,3,1,3,3,3,2,3,3,3,3,4,4,4,5,5,3,2,2,4,3,3,2,2,4,5,3,3,3,2,2,3,2,3,4,1,1.61538461538462,2,2,1,1,2,1,2,1,2,2,2,4,1,2,35.4, , ,35.4,1, ,1,1, , ,Zurich
1982,2,4,1,3,1,2,2,2,2,2,2,4,2,2,2,2,2.27777777777778,0,3.66666666666667,2.11111111111111,75,2.33333333333333, ,2.09090909090909,1,3,2,2,2,2,2,2,2,5,1,5,2,2,2,2,1,3,1,2,1,4,2,2,2,1,2,2,2,1,2,3,1,5,6,2,2,9:53:23,2.4,2,10,4,4,4,4,4,3,3,3,4,4,4,6,6,3,4,5,4,21,4.5,2.45454545454545,4,4,2,4,2,2,2,2,2,1,2,2,2,2,4,2,1,2,2,2,1,3,3,4,4,3,2,2,3,4,4,4,4,3,3.30769230769231,2,2,2,1, ,4,4,4,1,4,2,5,3,1, ,2,5,3,5,2,3,1, ,1, , , , , , , , , , ,5,4,5,5,4,4,4,8,2,1,4,1,4,4,2,2,5,4,2,1,2,4,4,4,4,3,2,3,3,3,3,3,2,2,2,1,2,3,4,1,2,3,2,2,4,3,2,4,3,2,4,4,2,2,4,4,3,2,4,2,4,4,3,3,3,2,2.53846153846154,3,3,3,2,3,2,2,3,2,2,3,4,2,3,36.9,36.7,2,36.8,1,-3,1,1,-.656235957778193,-.694142373509155,Zurich
1968,2,2,4,3,1,4,4,2,1,1,1,3,4,5,4,4,4.05555555555556,0,4.11111111111111,3,79,4, ,2.27272727272727,1,4,4,4,4,4,5,4,4,4,4,4,4,4,4,4,4,4,4,4,4,4,4,4,4,4,4,4,4,4,4,4,4,4,4,4,4,9:48:57,4,2,3,3,5,4,4,4,3,3,4,5,5,4,4,5,2,2,2,2,30,4.5,2.27272727272727,2,2,4,2,2,2,2,2,2,1,4,4,4,2,4,2,2,2,2,5,1,2,5,3,2,3,2,2,4,4,4,2,2,2,2.84615384615385,1,2,2,1, ,2,2,5, ,6,1,4,1,1, ,1, ,3,8,8,8,2,1,1, , , , , , , , , , ,4,5,5,5,4,4,4,7,1,4,3,4,4,1,1,1,1,4,4,4,1,4,4,2,4,2,2,3,4,3,3,3,3,3,3,2,4,2,2,3,4,4,1,3,4,4,4,2,4,2,4,3,1,4,4,4,2,1,1,1,3,2,3,1,2,2,2.38461538461538,3,3,3,3,2,2,2,2,2,2,3,3,2,2,36.47,36.79,2,36.63,1,4,1,1,.838257610300613,1.21679074885722,Zurich
1978,3,3,4,3,3,4,3,3,3,3,4,3,3,2,3,2,3.88888888888889,2,3.22222222222222,3, ,3.88888888888889, ,3.27272727272727,1,3,2,4,5,4,4,4,4,4,4,5,5,4,4,4,4,4,2,4,3,1,4,4,3,4,4,4,4,4,4,4,3,6,6,3,5,9:46:41,2.6,2,2,2,4,3,4,4,3,3,3,3,2,4,5,6,5,5,2,3,19,4.16666666666667,2.36363636363636,3,4,3,3,2,1,2,2,2,1,3,2,4,3,3,3,3,3,3,3,1,3,4,4,3,4,2,4,3,3,3,3,4,3,3.30769230769231,2,2,1,1, ,4,4,2,2,5,1,3,1,1, ,2,1,3,1,8,1,1, ,1, , , , , , , , , , ,3,3,6,5,4,4,4,8,1,4,3,1,4,4,3,3,4,3,2,1,2,3,4,4,3,3,3,3,2,3,3,2,2,3,3,3,2,3,4,2,3,2,2,3,4,3,2,3,3,4,3,3,2,2,3,3,2,2,3,3,2,3,3,3,3,3,3,3,3,4,2,3,3,3,4,3,3,3,2,3,2,37,36.7,2,36.85,1, ,1,1,.698148838293224,1.08939520736613,Zurich
1998,4,3,3,3,4,3,4,2,2,4,4,1,1,2,3,2,5.83333333333333,0,3.44444444444444,2.77777777777778,76,2.22222222222222, ,3.27272727272727,1,7,6,5,6,6,6,5,6,6,5,6,5,7,6,3,7,7,6,2,1,6,2,2,2,2,3,3,2,1,1,1,2,4,3,2,1,9:33:03,1.8,2,6,2,3,4,4,4,3,3,3,4,3,5,5,4,5,5,2,5,31,4.33333333333333,3.09090909090909,4,4,4,4,3,2,2,2,2,3,4,2,4,4,4,2,2,3,2,2,2,1,3,3,4,5,2,3,2,4,4,2,2,4,3,2,2,3,1, ,4,4,4,1,8,3,8,8,1, ,2,8,1, , ,1,2,5,2,Nationaler Dachverband,Kantonaler Dachverband, , , ,5,3, , , ,5,4,5,4,4,4,5,8,4,1,4,1,5,3,3,3,4,3,4,1,2,5,4,4,3,5,5,5,4,4,5,4,2,3,2,4,2,3,4,2,4,3,3,3,5,5,2,2,5,5,3,4,5,2,3,3,5,5,4,2,5,5,4,4,1,5,3.61538461538462,5,4,4,4,3,3,3,4,3,3,5,4,2,4,36.8,36.9,2,36.85,1,-1,1,1,2.33275117837942,-.821537915000247,Zurich
1987,4,3,2,2,3,4,2,3,4,3,3,3,4,2,2,3,4.05555555555556,10,4.22222222222222,3,64,3.33333333333333, ,3,1,5,5,5,5,3,5,3,4,5,3,3,5,5,3,5,3,4,2,5,3,2,2,3,4,1,3,7,3,3,4,5,1,5,4,2,3,9:02:02,2.8,2,55,4,5,5,5,5,4,4,2,4,4,3,2,1,2,2,3,4,26,4.16666666666667,3.09090909090909,4,2,4,3,4,3,4,3,2,2,3,3,2,4,4,2,2,3,3,4,2,3,4,4,3,4,2,3,4,3,3,2,2,1,2.92307692307692,1,2,2,1, ,4,4,5, ,5,5,4,4,1, ,1, ,3,1,8,3,1, ,1, , , , , , , , , , ,6,5,5,3,3,3,4,6,1,2,2,3,4,1,3,3,3,3,4,3,4,4,2,3,4,4,3,3,3,3,2,2,2,3,3,2,4,3,3,2,2,4,2,3,3,2,3,3,3,2,3,3,2,3,3,3,3,2,4,3,2,3,3,3,4,2,2.69230769230769,3,2,3,3,3,2,2,3,3,4,3,3,2,2,35.5,35.8,2,35.65,1,1,1,1,.838257610300613,.452417499910673,Zurich
1974,1,1,1,2,1,1,1,1,1,1,1,2,2,2,1,3,2.38888888888889,1,4.77777777777778,1.88888888888889,75,4, ,1.09090909090909,1,2,1,2,1,1,5,2,2,4,5,2,2,4,1,1,6,1,1,1,5,5,3,2,3,1,5,3,5,3,7,3,2,7,7,5,5,11:41:30,2,2,0,5,5,5,5,5,5,4,4,5,5,4,4,4,2,2,2,1,19,4,2,4,2,1,2,1,1,2,3,3,1,2,2,1,1,3,1,1,2,4,2,1,3,3,4,2,4,3,2,4,4,4,2,4,3,3.23076923076923,2,1,1,3,3,4,2,1, ,6,3,6,5,1, ,2,8,1, , ,1,1, ,1, , , , , , , , , , ,3,6,4,4,3,3,3,7,3,1,2,1,5,3,1,3,3,4,1,1,3,3,1,5,3,5,4,3,4,3,4,3,1,1,1,4,2,2,4,1,2,3,1,1,1,2,4,1,3,4,4,3,1,1,3,4,3,3,4,4,3,3,4,4,3,1,2.38461538461538,2,2,3,3,3,2,3,2,2,3,2,4,2,2,36.4,36.6,2,36.5,1,3,2,1,-.500386676824541,1.22930995369379,Chile
1983,1,5,1,1,1,1,2,1,1,1,2,4,1,2,3,2,3.05555555555556,0,3.88888888888889,3.22222222222222,59,1.77777777777778, ,1.54545454545455,1,3,3,2,6,1,6,2,3,6,1,5,2,4,1,1,6,2,1,1,2,3,1,2,2,2,1,2,2,2,1,1,2,3,2,1,2,10:07:21,2.4,2,1,5,4,4,4,4,4,5,2,4,4,4,4,4,3,5,1,5,24,1.4,3.09090909090909,4,4,4,4,4,1,1,1,4,3,4,4,3,3,3,4,2,4,2,4,1,5,5,5,4,5,5,4,5,4,1,5,5,2,4.23076923076923,2,1,1,1, ,2,2,4,1,6,4,4,4,1, ,2,8,1, , ,1,1, ,2,Doctorado, , , , ,10, , , , ,1,1,2,1,1,2,2,7,2,2,4,4,2,2,4,4,2,5,3,3,2,2,2,2,4,4,3,4,3,4,4,3,1,3,2,2,5,4,1,4,2,4,2,4,4,4,1,2,2,4,4,4,3,4,4,4,3,3,4,2,3,4,3,3,4,1,1.61538461538462,2,3,3,1,1,1,1,2,1,1,3,5,1,1,36.8,36.8,2,36.8,1,2,2,1,.258094180677922,-.929478257670912,Chile
1981,4,2,1,4,1,1,3,4,5,1,1,1,3,2,3,2,2.11111111111111,0,4,2,72,4.94444444444444,2,2.45454545454545,1,1,1,1,1,1,2,1,4,5,1,7,1,4,1,1,2,1,3,4,4,5,4,7,3,6,3,3,4,4,6,5,4,7,7,6,7,10:05:06,2.2,2,0,5,4,5,5,5,5,3,2,3,4,2,2,1,2,1,2,2,25,2.8,1.90909090909091,3,2,3,1,3,1,1,1,1,2,3,2,4,2,2,2,1,2,1,2,1,3,2,4,1,4,4,4,5,2,5,4,1,5,3.38461538461538,1,2,1,3,1,4,4,2,1,3,3,5,4,1, ,1, ,4,2,3,2,1, ,1, , , , , , , , , , ,4,4,3,3,2,2,2,8,1,5,2,2,5,2,2,3,3,2,2,4,1,3,5,5,2,1,3,2,4,3,4,4,3,4,5,5,2,4,2,2,2,2,5,5,5,5,5,1,1,1,5,1,1,3,5,2,2,2,5,1,4,3,2,2,5,1,2.07692307692308,3,2,3,1,2,1,2,2,2,1,3,5,3,2,36.6,36.3,2,36.45,1,2,2,1,-.816420367450567,2.14679494352378,Chile
1987,2,2,2,2,2,2,3,2,3,2,2,3,2,1,4,2,3.27777777777778,18,3.88888888888889,3.11111111111111,87,1.83333333333333, ,2.18181818181818,1,2,2,2,7,1,6,1,5,2,2,6,1,2,2,3,7,6,2,2,1,3,1,1,1,1,1,2,1,1,1,2,1,5,5,2,2,12:09:54,2.4,2,2,4,4,4,4,4,4,3,4,4,4,4,6,4,3,4,3,3,30,5.4,2.81818181818182,4,3,4,4,1,2,3,3,3,1,3,4,2,4,4,2,1,3,4,4,1,2,4,3,2,4,2,4,3,4,4,2,4,2,3.07692307692308,2,1,1,1, ,4,4,4,4,8,3,5,3,1, ,1, ,5,2,8,1,1, ,1, , , , , , , , , , ,5,6,6,5,6,4,5,7,1,5,4,3,5,2,2,2,2,3,2,3,2,4,4,5,4,5,5,4,3,3,4,2,2,2,2,4,3,4,3,3,3,3,1,3,2,3,2,2,3,2,4,4,2,2,4,4,3,3,4,5,2,5,4,4,2,3,2.61538461538462,2,4,3,2,2,2,3,3,2,3,3,4,2,3,36.5,36.4,2,36.45,1,7,2,1,.510921133178743,-.875508552386794,Chile
1997,4,4,1,4,4,4,5,4,3,4,2,3,3,1,3,1,3.55555555555556,7,4.88888888888889,3,79,2.22222222222222, ,3.54545454545455,1,6,2,2,2,5,6,5,2,4,2,4,2,3,2,5,6,5,1,2,1,6,1,1,1,2,2,1,1,1,1,2,2,6,6,2,2,12:00:30,2.2,2,0,4,5,5,5,5,5,5,4,5,5,4,4,4,4,4,5,3,25,5,3,2,4,5,4,4,2,3,2,2,1,4,3,4,2,4,3,1,4,3,3,2,1,1,4,4,4,4,2,1,4,3,1,5,2,2.76923076923077,2,1,2,1, ,4,4,5, ,8,6,7,7,1, ,2,8,1, , ,3,1, ,1, , , , , , , , , , ,6,5,6,3,5,6,7,6,3,1,4,5,5,2,3,4,2,5,3,1,2,2,3,1,5,3,3,5,5,5,4,5,1,1,2,4,1,3,4,3,5,2,5,5,5,4,1,1,4,2,3,4,2,3,5,3,3,2,4,2,3,4,3,4,2,5,3.38461538461538,3,3,4,3,3,3,3,5,3,4,2,5,4,4,36.5,36.8,2,36.65,1,2,2,1,.826954823804769,-.497720615397972,Chile
1948,1,1,1,1,1,1,2,1,2,1,1,2,2,2,1,4,2.83333333333333,0,4.11111111111111,2.11111111111111,79,2.44444444444444,1,1.18181818181818,1,2,2,4,2,5,6,1,1,4,2,2,5,4,1,1,2,2,5,2,2,2,2,2,1,2,2,4,1,2,2,2,1,6,5,1,5,11:53:12,2.2,2,0,4,5,5,5,5,5,3,2,4,3,4,5,5,3,3,2,1,23,3.8,2.45454545454545,3,3,3,3,3,1,3,3,3,1,1,2,2,2,2,2,1,2,4,2,1,2,3,4,4,4,3,1,5,4,4,4,4,2,3.38461538461538,2,2,5,4,4,1,1,1, ,6,4,7,5,1, ,1, ,1, , ,4,1, ,1, , , , , , , , , , ,3,4,5,4,3,3,3,6,2,2,4,4,3,4,1,3,3,4,2,2,4,3,4,2,4,4,4,4,1,3,4,1,1,1,1,3,4,3,4,3,5,1,3,3,2,2,3,2,3,3,4,2,3,2,3,4,4,3,4,3,2,4,3,3,3,1,2.15384615384615,2,2,2,3,2,1,2,2,2,3,3,3,2,2,35.7222222222222,36.4444444444444,2,36.0833333333333,1,1,2,1,.00526722817710109,-.281841794261502,Chile
1973,1,1,1,1,1,1,2,2,2,2,1,1,3,2,2,1,2.33333333333333,0,4.55555555555556,3.22222222222222,68,2.22222222222222, ,1.36363636363636,1,2,1,1,6,4,7,2,1,2,1,6,1,1,2,1,2,1,1,1,1,5,1,1,1,1,1,2,1,1,2,1,1,7,4,7,2,11:52:17,1.8,2,0,4,5,5,5,5,4,4,4,5,4,4,2,3,1,1,3,3,27,3.8,3.54545454545455,5,5,5,5,4,1,1,1,4,3,5,5,4,3,4,3,1,3,1,5,2,3,1,5,4,5,1,5,5,5,1,4,5,4,3.69230769230769,2,1,4,1, ,2,2,5, ,4,2,8,4,1, ,2,6,4,8,3,1,2,2,1, , , , , , , , , , ,2,4,3,4,4,4,4,8,2,2,1,5,3,2,4,1,1,5,3,1,4,4,1,2,5,5,5,5,5,5,5,5,1,1,2,1,5,4,1,3,1,3,4,5,5,2,4,2,1,2,2,2,4,4,4,4,2,2,4,2,3,5,5,3,2,2,1.69230769230769,1,2,3,3,1,1,1,2,2,2,1,4,2,1,36.4,36.9,1,36.65,1,13,2,1,-.563593414949746,-.497720615397972,Chile
1969,3,3,2,2,4,3,4,2,2,2,4,3,4,3,2,1,2.22222222222222,0,4.44444444444444,3.22222222222222,80,1.83333333333333, ,2.81818181818182,1,2,1,1,2,1,6,1,1,1,1,7,1,1,1,1,6,5,1,1,1,2,2,2,2,1,2,1,1,1,1,1,2,4,6,2,1,11:48:14,2.6,2,0,4,5,5,4,5,5,4,4,4,4,5,5,6,2,4,4,1,37,4.4,3.09090909090909,4,3,4,4,4,2,2,2,3,2,4,4,3,2,4,2,2,4,4,4,1,3,4,4,4,5,2,3,4,3,3,4,4,2,3.46153846153846,2,1,1,3,3,1,1,4,1,8,8,8,7,1, ,1, ,5,1,8,3,1, ,1, , , , , , , , , , ,2,6,6,4,3,3,3,8,2,1,2,1,5,5,2,2,5,4,3,1,3,2,3,4,4,4,4,4,4,4,4,4,2,2,2,4,2,2,4,2,5,2,2,3,3,4,2,2,4,4,4,4,4,2,2,3,4,3,4,2,4,4,4,4,2,3,3.07692307692308,4,3,3,3,2,3,3,3,3,3,3,4,3,4,35.9,36.8,2,36.35,1,7,2,1,-.690006891200157,-.875508552386794,Chile
1993,3,3,1,3,2,2,3,1,2,2,2,5,2,1,1,1,1.72222222222222,0,3.55555555555556,3.77777777777778,68,1.5, ,2.18181818181818,1,1,1,1,2,1,6,1,1,1,1,7,1,1,1,1,2,1,1,1,1,4,1,1,1,1,1,1,1,1,1,1,1,3,4,1,2,11:32:14,2,2,1,4,5,5,5,5,5,3,1,2,1,5,6,4,2,5,1,3,41,4.4,3.54545454545455,4,4,4,4,4,2,3,3,4,2,5,5,5,3,5,2,2,3,5,4,1,3,3,4,3,4,3,2,5,4,4,3,4,2,3.38461538461538,2,1,1,1, ,4,4,4,4,5,5,5,5,2,8,2,8,1, , ,2,2,8,1, , , , , , , , , , ,3,4,5,5,4,4,4,9,5,2,4,2,5,2,5,4,3,4,4,2,4,4,4,2,5,5,5,5,5,5,4,3,1,1,3,4,2,3,4,2,5,2,3,4,4,2,3,4,2,2,2,3,5,3,5,3,5,5,5,5,4,4,4,3,2,4,2.15384615384615,1,3,2,2,3,2,3,1,3,3,2,2,2,1,36.5,36.7,1,36.6,1,13,2,1,-1.258867534327,-1.1993267840915,Chile
1981,2,2,2,2,3,2,2,2,2,2,2,2,2,2,2,2,2.16666666666667,0,4.44444444444444,2.55555555555556,74,1.72222222222222, ,2.09090909090909,1,2,2,1,2,2,4,3,2,2,2,2,2,1,2,2,1,5,2,2,1,2,1,2,2,2,2,1,2,1,1,1,2,4,2,1,2,11:23:31,2,2,1,4,5,5,4,5,4,4,3,5,5,5,5,4,3,5,3,3,31,2,3.09090909090909,4,3,4,4,4,2,2,2,2,3,4,3,2,2,3,3,2,3,2,3,1,3,3,5,4,4,2,2,3,5,3,5,3,2,3.38461538461538,2,1,1,2,2,4,4,1, ,7,7,8,7,1, ,1, ,4,1,3,2,1, ,1, , , , , , , , , , ,3,3,2,1,2,2,1,7,2,2,4,3,4,3,3,3,3,4,3,3,3,3,3,3,4,4,4,4,4,4,4,3,1,1,2,4,4,3,2,3,2,3,2,2,3,2,3,3,3,3,3,3,3,2,4,2,3,3,4,3,3,4,3,3,3,3,2.23076923076923,2,3,3,2,2,2,2,3,2,2,2,4,2,2,36.5,36.8,1,36.65,1,6,2,1,-.753213629325362,-.983447962955029,Chile
1989,3,4,1,4,2,2,3,2,4,2,1,1,3,2,4,1,3.27777777777778,0,5,2.88888888888889,79,4.22222222222222, ,2.54545454545455,1,3,5,2,1,3,5,2,3,5,5,2,2,5,1,2,7,2,4,6,5,6,2,3,3,3,3,5,4,6,5,3,3,5,6,2,6,11:17:04,2.2,2,0,4,5,5,5,5,5,5,5,5,5,3,2,1,1,1,2,1,25,1.6,3.27272727272727,4,4,4,4,4,1,4,1,5,1,4,4,3,1,3,3,2,2,4,4,1,2,3,5,3,5,5,4,5,5,5,5,5,5,4.38461538461539,1,1,2,1, ,4,4,5, ,8,4,7,4,1, ,1, ,4,1,2,5,1, ,1, , , , , , , , , , ,2,3,2,1,1,1,1,6,2,1,4,4,4,1,3,1,5,2,4,1,3,4,5,1,3,2,4,4,4,3,4,3,4,3,3,4,1,4,2,1,2,5,5,1,2,5,1,1,5,5,3,4,1,4,1,2,1,3,5,1,5,1,5,5,1,1,1.92307692307692,2,2,2,2,3,2,2,2,2,2,1,4,1,2,35.9,36.2,1,36.05,1,12,2,1,.510921133178743,1.44518877483026,Chile
1984,1,5,1,5,1,1,1,5,5,1,3,1,1,5,5,5,1.55555555555556,2,3.66666666666667,3.22222222222222,61,4.88888888888889, ,2.63636363636364,1,1,1,1,1,4,1,1,1,3,1,1,1,1,1,1,2,5,1,6,6,1,4,6,4,2,4,5,7,2,6,4,3,7,7,7,7,11:11:44,3.4,2,1,4,3,4,4,5,5,3,2,3,4,2,2,1,2,2,3,2,30,5.8,2.90909090909091,4,3,3,5,3,2,1,3,3,2,3,2,3,2,5,2,3,2,5,5,1,3,5,3,4,3,1,4,3,2,5,2,5,2,3.23076923076923,1,1,1,2,2,4,1,3,1,4,1,8,5,1, ,1, ,5,1,8,1,1, ,2,Autos, , , , ,5, , , , ,6,7,6,4,6,6,7,8,2,3,3,5,1,5,3,1,1,5,5,5,1,1,5,5,5,1,1,3,3,5,1,1,3,3,4,1,5,5,1,5,3,1,1,1,5,5,1,1,5,5,5,5,1,5,3,5,1,3,3,5,2,1,1,1,4,1,2.30769230769231,2,3,3,1,2,3,1,2,2,2,4,4,2,3,36,36.3,2,36.15,1,6,2,1,-1.44848774870262,2.09282523823967,Chile
1984,1,2,3,1,2,2,3,2,1,1,2,3,3,1,3,2,3.22222222222222,1,4.11111111111111,3.88888888888889,79,2.77777777777778,0,1.81818181818182,1,4,4,2,2,3,6,4,2,5,2,5,4,2,3,2,4,2,2,2,2,2,2,2,2,2,2,6,2,2,5,2,2,5,5,2,3,10:46:02,2.4,2,1,4,5,5,5,5,3,3,3,4,4,4,4,6,3,4,5,4,67,7,3.72727272727273,4,4,4,5,4,4,4,3,2,3,4,5,4,4,4,1,3,5,4,5,1,2,5,2,1,3,2,5,4,4,5,3,5,2,3.30769230769231,1,2,2,1, ,4,4,4,1,8,4,8,8,1, ,2,8,5,8,8,2,1, ,2,Banda Musical,Trabajo 1,Trabajo 2,Curso Colegio,Club Toby,5,10,4,15,4,6,7,7,7,7,7,7,9,3,2,4,4,4,2,2,3,3,4,3,5,3,4,5,3,4,3,3,4,4,4,4,4,2,2,3,2,4,5,5,3,4,3,2,3,5,2,5,1,2,2,4,2,1,1,3,2,1,1,3,3,2,2,2,3,2,2,2.69230769230769,2,4,5,2,2,2,2,2,3,3,4,5,1,3,36.3,36.2,2,36.25,1,13,2,1,.447714395053538,.0419764374432027,Chile
 ,2,2,1,3,2,2,2,3,2,2,3,2,4,3,4,2,3.05555555555556,0,3.88888888888889,1.11111111111111,55,1.94444444444444, ,2.18181818181818, ,2,2,1,3,2,2,6,5,6,1,5,1,3,2,5,2,5,2,2,1,2,1,2,1,2,2,1,4,2,2,1,2,3,4,1,2,15:45:03,3, ,0,3,5,5,5,5,4,3,3,3,2,5,6,4,1,1,1,1,16,2.4,1,1,1,1,1,1,1,1,1,1,1,1,1,1,1,1,1,1,2,1,1, ,3,3,4,5,4,2,2,2,2,4,5,3,3,3.23076923076923, , ,1,1, ,4,2,4,2,3,2,3,2,1, ,2,3,4,1,1,1,1, ,1, , , , , , , , , , ,3,4,2,3,1,2,2,8,1,2,5,5,2,2,2,3,4,5,5,3,2,2,4,5,3,5,3,5,3,3,4,2,1,2,2,1,5,3,2,5,3,2,3,4,3,2,5,4,3,4,3,3,2,3,4,4,4,3,4,4,3,2,3,3,2,3,2.61538461538462,2,3,3,3,3,2,3,2,3,2,3,4,3,2,36.7, , ,36.7,1,12,2,1,.258094180677922,-.767569141818559,Chile
1975,3,4,1,4,4,4,4,4,4,3,2,1,2,1,4,1,3.94444444444444,1,4.33333333333333,2.88888888888889,71,2.94444444444444, ,3.36363636363636,1,5,5,3,3,6,7,2,5,6,2,3,1,5,2,2,6,5,3,5,1,6,1,1,2,3,1,2,2,2,2,1,6,7,6,3,2,12:10:48,1.8,2,2,3,5,5,5,5,5,3,4,4,3,5,7,6,7,6,6,7,43,4.8,2.90909090909091,5,4,4,2,5,1,1,1,4,1,4,3,3,1,4,3,3,3,2,4,1,3,3,3,3,2,4,4,3,4,4,2,4,4,3.30769230769231,2,1,1,2,2,4,4,4,2,3,2,5,5,1, ,1, ,5,8,8,3,2,3,2,Apoyo a un hogar, , , , ,1, , , , ,7,5,5,4,5,5,4,9,2,4,1,4,4,4,2,2,4,5,2,1,2,3,4,4,4,5,3,5,5,3,5,5,1,2,2,4,3,4,2,3,2,5,4,4,5,5,2,1,4,2,4,4,2,3,5,4,4,3,5,5,5,4,5,2,3,4,2.84615384615385,3,4,3,3,2,2,3,5,2,3,3,3,2,2,36.5,36.2,2,36.35,1,12,2,1,1.26940199068121,.203885553295555,Chile
1965,2,2,3,2,2,1,2,2,2,1,1,2,1,2,1,1,2.16666666666667,5,4.11111111111111,2.22222222222222,80,2.22222222222222,0,1.81818181818182,1,2,1,2,2,2,7,1,2,3,1,4,2,1,2,1,2,2,2,2,1,2,2,1,1,2,1,2,2,2,2,1,2,6,6,3,2,11:55:52,1.4,2,0,3,4,5,4,5,4,3,3,5,4,4,4,5,1,6,6,1,45,1.6,2.36363636363636,4,2,4,2,3,2,1,2,2,1,3,4,2,1,3,2,1,2,3,2,1,4,5,4,3,2,2,2,5,2,4,3,5,3,3.38461538461538,1,2,1,3,3,4,4,1, ,8,8,8,7,1, ,1, ,5,8,8,2,1, ,1, , , , , , , , , , ,2,2,2,1,2,1,2,7,2,3,3,4,4,2,4,4,2,5,3,4,4,4,5,4,3,2,4,4,4,4,5,5,1,1,3,2,4,4,2,4,3,5,4,4,5,4,5,2,2,3,4,4,2,2,3,4,2,2,3,1,4,2,3,2,4,3,2.07692307692308,1,3,2,3,2,2,2,2,2,2,2,3,2,2,36.4,36.7,1,36.55,1,7,2,1,-.753213629325362,-.497720615397972,Chile
1991,4,4,2,4,4,4,4,4,2,4,5,2,2,2,3,1,3.22222222222222,31,4.55555555555556,2.77777777777778,59,3.44444444444444,0,3.72727272727273,1,4,2,3,5,2,6,3,5,3,1,4,1,3,1,1,5,7,2,2,3,6,3,3,2,5,2,2,3,3,2,2,2,7,7,2,6,11:54:42,2,2,0,3,5,5,4,5,5,5,2,5,5,3,4,5,3,2,1,2,12,5.2,3.09090909090909,4,4,4,4,3,1,2,2,2,4,4,4,3,2,3,2,1,4,2,4,1,1,1,2,3,2,1,1,2,2,4,2,2,1,1.84615384615385,1,2,2,1, ,4,2,5, ,3,3,4,1,1, ,2,8,1, , ,1,1, ,1, , , , , , , , , , ,4,5,6,5,5,5,6,6,2,4,5,4,4,3,4,4,2,5,5,2,2,2,4,5,4,4,2,4,3,4,5,3,2,2,2,2,4,5,2,3,2,1,1,5,4,3,2,2,4,4,2,4,1,2,2,4,1,1,4,2,4,2,2,3,4,4,2.84615384615385,3,3,4,1,1,3,2,5,2,3,4,5,3,3,36.4,36.3,2,36.35,1,2,2,1,.447714395053538,.689612900852613,Chile
1982,1,2,4,4,1,1,3,3,1,2,2,4,3,3,2,3,3.27777777777778,1,4.55555555555556,2.77777777777778,79,2.5,0,2.18181818181818,1,4,5,4,2,1,6,6,1,5,2,5,2,1,1,2,6,5,1,7,2,7,1,7,1,1,1,1,1,1,1,1,1,4,6,1,1,11:54:39,3,2,0,3,5,5,5,5,4,5,4,4,4,5,6,4,4,4,1,1,23,3,2.45454545454545,3,2,3,2,2,2,3,3,2,2,3,3,4,1,4,1,2,3,4,3,1,2,3,4,4,2,2,2,2,4,4,3,4,2,2.92307692307692,2,2,1,2,2,4,3,4,1,2,1,2,1,1, ,1, ,5,1,8,1,1, ,1, , , , , , , , , , ,4,4,3,3,2,3,3,8,1,1,5,1,5,3,2,3,4,2,1,3,1,1,5,4,1,2,1,3,2,3,3,3,2,2,2,5,2,2,3,2,1,3,4,4,3,5,2,3,4,4,2,3,2,5,2,1,2,1,1,2,1,2,3,3,2,2,3.23076923076923,3,4,4,2,2,3,3,4,3,3,4,4,3,4,36.4,36.2,2,36.3,1,2,2,1,.510921133178743,-.227872088977385,Chile
1958,1,1,1,1,1,1,1,1,1,1,1,5,1,1,3,1,1.33333333333333,13,4.11111111111111,2.77777777777778,69,1, ,1,2,1,1,1,1,1,1,1,1,1,1,1,1,1,1,1,7,1,1,1,1,1,1,1,1,1,1,1,1,1,1,1,1,1,1,1,1,11:45:27,2.2,2,0,3,5,5,5,5,5,1,1,5,5,5,6,4,1,2,2,1,44,2.8,3,5,5,5,5,3,1,1,1,1,1,5,5,3,1,3,1,3,4,2,3,1,5,5,5,5,5,5,3,5,3,5,5,5,5,4.69230769230769,2,1,1,4,4,2,2,4,4,5,5,5,5,2,1,1, ,5,8,8,2,1, ,1, , , , , , , , , , ,1,4,4,4,1,1,1,9,2,1,5,1,5,4,5,5,3,4,1,3,3,5,4,5,5,5,5,5,1,3,5,1,1,5,1,4,4,2,1,1,5,4,5,5,5,5,1,1,3,3,5,3,3,5,5,3,5,5,5,1,3,5,3,5,3,3,2.23076923076923,3,3,4,2,3,1,1,2,1,2,3,3,1,3,36.6,36.6,2,36.6,1,12,2,1,-1.70131470120344,-1.68505413164856,Chile
1974,2,1,3,1,2,4,4,1,3,3,1,2,2,1,2,2,2.44444444444444,2,4.11111111111111,3.88888888888889,81,3.38888888888889,0,2.27272727272727,1,2,2,1,2,2,6,1,2,3,5,2,4,2,2,2,2,2,2,2,2,7,2,2,2,2,2,2,4,3,5,2,1,6,7,6,4,11:31:30,1.8,2,0,3,4,4,4,4,4,4,4,4,5,4,5,4,4,4,4,4,52,2.4,3.81818181818182,4,4,4,4,5,4,4,3,4,2,4,4,4,4,4,3,3,4,5,4,1,5,5,3,4,4,3,4,5,5,5,4,5,4,4.30769230769231,2,2,1,3,3,4,2,4,1,3,3,3,3,1, ,1, ,5,8,8,2,1, ,2,Jsb,Familia,Spicee girls,Jsb prime,Solo nosotras,3,4,4,2,4,2,3,2,2,3,2,2,9,1,1,4,1,5,4,4,3,3,2,1,2,3,4,5,4,3,5,4,4,4,4,4,4,2,2,3,5,1,1,4,2,5,1,2,5,5,4,2,1,2,3,1,4,2,1,3,4,2,3,2,4,2,2,3,4,1,2,2.53846153846154,2,2,4,2,3,2,3,3,2,2,3,4,2,3,35.7,36.8,1,36.25,1,7,2,1,-.437179938699336,.635643195568495,Chile
1989,3,1,1,1,3,4,1,1,1,2,2,3,2,1,1,1,2.33333333333333,0,3.88888888888889,2.66666666666667,21,2.22222222222222, ,1.81818181818182,1,1,1,1,6,1,6,2,2,2,2,1,2,1,1,1,5,5,2,5,3,3,2,1,2,1,2,1,1,1,2,1,2,6,3,1,3,11:12:04,1.6,2,2,3,4,5,4,5,5,3,3,2,4,4,4,5,1,3,3,2,14,5.6,2.90909090909091,4,4,4,4,4,1,1,1,4,1,4,4,4,3,4,2,1,2,2,2,1,2,4,3,2,4,1,3,2,2,5,4,5,4,3.15384615384615,2,1,1,1, ,4,2,4,1,1, ,1,1,1, ,2,3,4,1,2,2,1, ,1, , , , , , , , , , ,5,5,5,7,6,5,5,7,1,1,4,3,5,2,2,2,5,5,2,1,1,3,5,5,4,4,4,4,4,3,4,4,1,1,4,2,4,4,2,2,4,4,1,5,4,4,1,2,5,4,2,4,3,3,1,4,3,3,2,4,1,2,1,3,2,4,2.92307692307692,4,3,3,3,2,4,3,2,2,4,3,4,3,2,36.4,36.5,2,36.45,1,13,2,1,-.563593414949746,-.497720615397972,Chile
1984,2,2,2,3,2,2,1,2,3,2,2,1,2,2,3,2,2.61111111111111,0,4.55555555555556,3.22222222222222,64,2.61111111111111, ,2.09090909090909,1,2,2,2,6,2,6,2,2,2,2,3,2,2,2,2,4,2,2,2,2,4,2,2,2,2,2,2,2,2,2,2,3,6,6,2,2,11:11:43,2,2,9,3,5,5,5,5,5,4,2,5,5,3,3,3,3,3,3,3,39,3.2,2.90909090909091,4,2,4,4,4,2,2,2,2,2,4,4,4,3,4,3,3,3,2,3,1,4,3,5,3,4,3,3,4,3,4,5,5,4,3.84615384615385,1,1,2,1, ,4,4,4,1,1, ,8,8,1, ,1, ,5,1,8,1,1, ,2,Trabajo,Colegio, , , ,7,4, , , ,4,4,4,3,3,2,3,6,2,2,4,2,4,2,2,4,2,5,4,4,3,4,4,2,4,3,4,4,4,3,4,3,2,2,3,2,2,4,4,2,2,4,2,4,4,3,4,2,2,4,3,3,2,3,4,3,2,2,4,4,4,4,4,4,3,2,2.53846153846154,3,3,3,2,3,2,2,3,2,3,2,4,2,3,36.8,36.7,2,36.75,1,10,2,1,-.24755972432372,-.11993267840915,Chile
1995,4,5,4,4,4,5,4,5,4,2,2,2,2,1,3,1,2.66666666666667,0,3.44444444444444,3,55,2, ,3.90909090909091,1,2,1,1,6,2,6,1,2,2,1,2,2,6,2,1,4,6,1,1,2,3,2,2,1,2,2,2,1,1,2,1,2,6,3,1,2,10:54:08,1.8,2,0,3,4,4,4,4,4,3,4,2,2,3,5,7,3,4,1,4,22,5,2.63636363636364,4,4,2,4,3,2,2,2,2,2,2,3,4,2,2,4,2,2,4,4,1,4,3,1,2,5,3,5,5,4,4,3,5,5,3.76923076923077,2,1,1,1, ,4,4,4,1,5,5,5,4,1, ,2,6,4,1,1,1,1, ,1, , , , , , , , , , ,3,5,4,4,6,6,4,8,2,2,5,4,2,1,4,5,4,5,5,1,1,1,4,4,2,4,2,4,4,2,4,2,2,2,2,1,4,4,3,4,5,2,2,4,4,5,2,1,4,4,4,4,2,4,5,4,2,4,5,5,5,5,4,4,4,4,2.92307692307692,4,5,5,1,3,1,1,4,3,1,5,5,1,4,36.8,36.3,1,36.55,1,12,2,1,-.184352986198515,-.713599436534442,Chile
1978,1,2,1,2,5,1,1,2,2,1,1,2,2,1,1,1,4.16666666666667,0,4,1.77777777777778,85,4.83333333333333, ,1.72727272727273,1,4,4,4,6,4,4,4,2,4,4,5,6,7,2,1,3,7,4,6,4,7,4,5,5,5,4,4,4,4,4,4,5,7,7,4,4,10:39:14,1.4,2,1,3,4,5,5,5,5,3,3,3,3,5,6,6,6,6,1,1,35,2.2,1.90909090909091,5,5,1,2,2,1,1,1,1,1,1,4,4,1,1,1,1,2,1,1,2,3,4,5,2,4,2,3,5,2,3,4,5,3,3.46153846153846,2,1,3,2,2,2,2,5, ,8,5,5,3,2,1,2,5,5,8,8,1,1, ,1, , , , , , , , , , ,1,3,2,2,2,2,2,9,2,5,2,1,5,5,3,1,5,1,1,1,4,2,4,3,4,3,3,3,4,4,3,3,3,1,3,5,1,1,5,1,1,3,5,5,3,4,1,2,3,2,5,2,1,1,1,3,1,1,4,3,3,3,4,5,1,1,3.38461538461538,3,4,4,4,2,3,4,5,2,4,3,4,4,2,36.1,36.3,2,36.2,1,14,2,1,1.52222894318203,2.03885553295555,Chile
1991,4,4,1,4,4,2,4,2,4,3,4,1,1,1,2,1,1.61111111111111,1,3.55555555555556,2.55555555555556,62,1.66666666666667, ,3.27272727272727,1,2,1,1,1,1,1,3,1,2,1,1,1,1,2,1,7,1,1,1,1,1,1,2,1,1,1,1,2,2,2,1,1,2,2,7,1,10:32:56,1.2,2,0,3,4,3,4,4,3,4,2,4,4,4,6,7,4,6,2,6,31,4.6,2.90909090909091,4,4,4,4,1,2,1,2,4,2,4,2,4,2,4,2,1,2,2,4,1,2,3,2,2,3,1,2,3,4,3,2,5,3,2.69230769230769,2,1,2,1, ,4,4,4,1,4,3,6,4,1, ,2,8,4,1,8,1,1, ,2,Pandemic, , , , ,4, , , , ,4,5,5,5,4,4,4,8,2,1,5,4,2,4,4,4,2,5,4,1,3,5,4,3,3,5,2,4,2,2,4,2,1,4,2,1,5,5,2,4,4,1,4,4,4,2,4,2,2,2,4,2,5,2,2,4,5,4,4,2,4,4,5,4,2,4,2.61538461538462,3,4,3,2,2,2,2,3,2,2,4,4,3,2,36.8,36.8,1,36.8,1,11,2,1,-1.38528101057741,-1.03741766823915,Chile
1958,3,2,2,2,2,3,2,3,3,3,2,3,4,2,3,3,3.61111111111111,0,3.77777777777778,2,80,3.22222222222222, ,2.45454545454545,1,2,4,3,4,4,5,3,4,3,3,5,4,4,4,3,4,3,3,3,3,4,3,3,4,2,3,3,3,3,3,2,4,4,4,3,4,10:20:28,3,2,8,3,4,4,4,4,4,3,3,4,4,3,5,5,1,5,5,5,21,5.8,2,2,2,2,2,2,2,2,2,2,2,2,2,2,2,2,2,2,2,2,2,2,3,4,3,3,4,3,3,3,4,3,4,3,3,3.30769230769231,1,1,2,1, ,1,1,1, ,4,4,3,3,1, ,1, ,4,1,2,3,1, ,2,JUNTA DE VECINO, , , , ,2, , , , ,4,5,6,6,6,6,6,6,1,2,4,5,4,4,3,3,4,4,4,2,3,3,4,4,3,4,4,4,3,4,4,3,3,3,3,2,3,4,3,4,4,4,3,4,4,4,4,3,3,3,3,3,3,2,4,3,3,3,4,3,3,3,4,3,2,3,2.38461538461538,2,2,3,3,2,2,2,4,3,2,2,3,2,2,35.5,35.5,1,35.5,1,12,2,1,.890161561929974,.473734079716143,Chile
1992,2,2,2,4,2,2,3,2,3,3,3,2,3,3,3,4,4.11111111111111,5,3.77777777777778,3.55555555555556,82,3.94444444444444, ,2.54545454545455,1,4,5,4,4,4,5,4,4,4,4,4,4,4,4,4,4,4,4,4,4,4,4,4,4,4,4,4,4,4,4,4,4,4,4,3,4,9:58:07,3,2,1,3,4,4,4,4,4,4,3,4,3,3,4,4,2,3,2,2,17,4.8,3,3,4,4,3,2,2,4,3,3,2,3,4,4,3,4,4,3,3,3,4,1,3,3,2,3,3,2,3,3,2,3,4,3,4,2.92307692307692,1,1,2,1, ,4,4,4,1,2,2,5,4,1, ,2,8,1, , ,1,1, ,1, , , , , , , , , , ,3,5,6,5,4,4,4,7,2,3,3,3,3,4,4,3,4,4,3,2,3,3,3,4,3,4,4,4,3,3,3,3,2,3,2,3,3,3,3,3,2,2,3,2,3,4,2,3,3,4,3,4,3,2,3,3,3,3,3,3,3,3,3,3,3,2,3.15384615384615,2,4,3,3,3,3,3,4,3,3,4,4,4,2,35.7,35.6,1,35.65,1,8,2,1,1.45902220505682,1.17534024840967,Chile
1997,2,3,3,3,4,4,4,2,2,2,4,2,2,2,3,2,2.94444444444444,3,4.22222222222222,2.44444444444444,59,2.44444444444444,0,3,1,3,1,2,5,4,7,2,1,5,1,1,2,2,5,1,3,7,1,2,5,4,2,1,1,2,2,2,2,2,2,1,2,4,6,1,3,9:57:06,2.2,2,5,3,4,4,4,5,5,4,5,4,3,4,4,5,2,2,3,3,28,5.4,3,4,2,4,3,4,2,4,1,4,1,4,2,3,2,4,1,1,1,4,4,1,3,2,5,2,2,1,3,2,1,4,2,5,4,2.76923076923077,1,2,2,1, ,4,4,4,2,7,6,6,3,1, ,2,8,1, , ,3,1, ,2,AEM, , , , ,5, , , , ,5,5,5,5,6,6,6,7,2,4,5,5,4,2,3,2,3,5,4,5,4,3,5,5,3,5,4,4,4,3,3,3,3,2,2,1,5,4,2,4,1,2,3,4,4,4,4,4,3,3,4,4,2,3,4,3,4,4,4,5,4,3,3,3,2,4,2.61538461538462,2,3,3,2,3,2,3,3,2,3,3,4,3,2,36.67,36.5,2,36.585,1,6,2,1,.131680704427512,-.281841794261502,Chile
1987,2,1,1,1,1,1,2,1,1,1,2,1,1,1,2,1,4.38888888888889,0,4,3,76,2.05555555555556,0,1.27272727272727,1,7,5,5,6,1,7,2,5,7,1,5,7,4,2,5,7,2,1,3,7,2,1,5,1,1,3,2,1,1,1,2,1,1,3,1,1,11:51:05,1.2,2,2,2,4,4,4,4,4,4,4,4,4,4,2,2,2,2,2,2,37,4.4,4.18181818181818,5,5,5,5,5,2,2,5,5,2,5,4,2,2,4,2,2,5,2,4,1,3,1,4,2,2,1,1,1,1,1,1,4,1,1.76923076923077,2,2,2,1, ,4,2,4,4,5,1,8,8,1, ,2,8,4,1,8,1,1, ,2,grupo de izquierda, , , , ,15, , , , ,2,5,6,7,2,2,2,8,3,1,4,4,4,2,2,5,5,5,2,1,4,4,4,2,4,5,4,5,5,5,5,5,1,1,1,2,1,2,4,2,5,1,4,1,5,2,4,2,3,2,4,2,1,2,2,5,1,1,1,1,1,4,2,3,1,4,2.76923076923077,3,3,4,2,2,2,3,4,2,2,3,5,4,2,36.1,36,2,36.05,1,8,2,1,1.77505589568285,-.659629731250324,Chile
1975,2,2,5,3,2,3,4,3,2,1,3,4,1,1,2,4,5.05555555555556,0,4.11111111111111,2.88888888888889,62,4.22222222222222,0,2.72727272727273,1,6,3,6,6,5,6,2,7,5,6,3,5,5,5,6,6,7,2,5,6,7,1,6,4,5,5,3,3,5,5,3,5,7,2,1,3,11:36:17,2.4,2,0,2,5,5,5,5,3,4,2,4,4,5,7,5,5,6,6,6,30,4.8,3,4,4,4,4,1,1,4,2,4,1,4,4,4,4,4,2,1,3,1,3,2,2,2,3,3,4,2,1,4,2,4,2,5,4,2.92307692307692,2,2,3,2,2,4,4,5, ,7,4,8,5,1, ,1, ,4,1,3,2,1, ,2,fundación, , , , ,4, , , , ,6,5,5,4,5,5,5,7,2,1,1,2,4,4,2,2,4,5,4,2,4,3,5,4,5,5,5,4,3,4,3,2,2,4,4,2,4,4,3,2,2,3,4,2,3,2,5,2,2,2,2,4,4,2,5,5,4,5,5,2,4,4,5,3,5,5,2.46153846153846,2,2,3,1,1,2,4,4,2,3,2,3,3,3,36.1,36.1,1,36.1,1,11,2,1,2.53353675318531,1.44518877483026,Chile
1953,2,1,2,1,1,2,4,2,3,2,3,1,2,1,2,1,2.83333333333333,0,4.66666666666667,2.77777777777778,73,2.72222222222222, ,2.09090909090909,1,3,5,7,2,2,6,5,1,2,2,2,2,2,2,4,1,2,1,1,1,6,2,2,2,4,2,1,1,2,3,1,5,6,7,1,2,11:35:33,1.4,2,1,2,5,4,5,5,3,5,5,5,5,4,6,6,7,7,6,5,29,3.8,3.45454545454545,4,4,4,3,2,4,4,2,4,3,4,4,2,2,2,4,2,3,3,3,1,2,4,4,4,4,3,1,4,3,2,3,5,2,3.15384615384615,2,1,1,2,2,1,1,1, ,6,4,7,6,1, ,1, ,5,1,5,1,1, ,2,Grupo de teatro, , , , ,4, , , , ,4,5,4,6,2,2,2,7,2,1,5,3,5,5,5,3,3,5,5,2,3,4,4,4,2,5,5,4,3,3,4,3,2,3,3,2,4,5,5,3,4,4,4,4,4,2,2,3,4,3,2,3,2,4,4,2,4,4,4,4,3,4,4,4,2,2,2.84615384615385,2,3,3,2,4,3,2,3,4,3,3,3,2,3,36.2,35.5,1,35.85,1,11,2,1,.00526722817710109,-.0119932678409146,Chile
1989,3,1,2,1,2,3,4,1,1,2,2,2,2,1,1,1,2.16666666666667,0,4.22222222222222,2.88888888888889,67,2.5, ,2,1,1,1,1,1,2,1,2,3,2,2,5,1,1,1,1,6,5,3,5,2,6,2,7,1,1,1,1,1,1,2,1,1,7,3,1,2,11:02:02,1.4,2,0,2,5,5,5,5,5,3,2,4,4,4,4,4,3,3,4,4,15,5.8,4.27272727272727,5,5,5,5,5,2,3,3,5,4,5,2,3,2,4,2,2,3,4,4,1,2,3,5,3,4,1,4,2,2,5,3,5,4,3.30769230769231,2,1,1,1, ,4,2,4,1,1, ,1,1,1, ,2,2,4,2,2,2,1, ,1, , , , , , , , , , ,6,7,5,6,6,5,5,7,1,1,5,2,4,2,2,2,4,4,2,1,2,4,5,5,4,4,4,4,4,3,4,4,1,1,4,3,3,3,4,2,4,4,2,5,5,5,1,3,5,4,4,5,2,3,5,5,2,3,2,4,2,2,2,4,2,4,3.23076923076923,4,2,4,4,4,2,4,3,2,4,3,5,3,3,36,37,1,36.5,1,8,2,1,-.753213629325362,-.227872088977385,Chile
1985,2,1,2,1,1,2,2,2,2,1,1,1,2,1,1,3,3.27777777777778,1,4.66666666666667,1.66666666666667,61,1.94444444444444,0,1.54545454545455,1,5,3,1,2,2,7,2,2,5,3,6,2,2,2,3,5,6,1,2,2,2,1,1,2,1,2,2,2,2,3,1,2,2,5,1,2,10:41:28,1.6,2,0,2,5,5,5,5,5,4,3,5,5,5,6,6,4,5,5,3,30,5.8,2.36363636363636,4,4,4,3,1,1,1,1,2,1,4,1,1,1,1,2,2,1,4,2,1,3,5,4,3,4,4,3,4,4,4,4,5,3,3.84615384615385,2,2,1,1, ,4,4,4,1,8,5,7,6,1, ,2,8,1, , ,1,1, ,2,Grupo de Estudio,Político, , , ,2,6, , , ,5,7,6,5,6,5,6,7,3,2,4,4,4,4,2,2,2,5,4,1,3,3,5,4,4,5,4,4,4,4,4,4,1,2,1,2,4,4,2,2,2,4,4,4,4,1,4,2,2,2,4,2,2,1,4,3,2,2,4,2,4,5,4,3,2,2,2.46153846153846,2,3,3,3,3,2,2,2,3,3,2,2,2,2,36.6,36.6,2,36.6,1,10,2,1,.510921133178743,-.767569141818559,Chile
1957,1,2,2,2,1,2,3,2,1,1,1,2,3,3,4,2,1.94444444444444,3,5,1.55555555555556,55,2.16666666666667, ,1.63636363636364,1,1,1,1,1,1,4,1,1,7,1,6,1,1,2,1,1,3,1,6,2,2,2,2,2,1,1,2,2,2,2,2,1,2,2,4,2,10:08:39,2.8,2,10,2,5,5,5,5,5,5,5,5,5,4,5,2,3,2,1,1,35,1.8,1,1,1,1,1,1,1,1,1,1,1,1,2,1,1,4,1,1,2,1,1,1,5,5,4,5,4,5,4,5,2,4,5,4,4,4.30769230769231,1,1,1,4,4,2,2,2,1,5,1,8,4,2,1,2,8,5,8,8,1,1, ,1, , , , , , , , , , ,1,2,2,1,2,2,2,10,2,2,4,2,4,3,4,3,3,2,2,2,3,3,3,2,4,3,3,4,3,3,3,3,2,2,2,4,2,2,3,2,2,4,4,4,4,4,3,2,3,4,4,3,2,2,3,2,1,1,2,3,1,1,1,1,3,1,2.23076923076923,2,2,4,2,3,2,2,2,2,2,2,4,2,2,36.2,36,2,36.1,1,12,2,1,-1.00604058182618,-.551690320682089,Chile
 , , , , , , , , , , , , , , , , , , , , ,79, , , , , , , , , , , , , , , , , , , , , , , , , , , , , , , , , , , , , , , , ,17:00:56, , , , , , , , , , , , , , , , , , , , ,0, , , , , , , , , , , , , , , , , , , , , , , , , , , , , , , , , , , , , , , , , , , , , , , , , , , , , , , , , , , , , , , , , , , , , , , , , , , , , , ,0,0, , , , , , , , , , , , , , , , , , , , , , , , , , , , , , , , , , , , , , , , , , , , , , , , , , , , , , , , , , , , , , , , , , , , , , , , ,35.6, , ,35.6,1,2,2,1, , ,Chile
1995,2,2,2,2,2,2,2,2,2,2,2,2,2,1,3,2,2.33333333333333,0,4.33333333333333,1.55555555555556,81,3.77777777777778, ,2,1,1,1,2,1,1,2,1,2,7,2,7,2,1,1,3,2,3,3,3,3,1,3,3,2,3,5,5,4,4,4,3,5,7,7,3,3,10:09:32,2,2,0,5,5,5,5,5,5,4,2,5,3,5,7,6,6,6,3,7,20,3.83333333333333,1.09090909090909,2,1,1,1,1,1,1,1,1,1,1,1,2,1,2,2,1,1,2,2,2,5,5,2,5,5,5,5,4,4,5,5,4,5,4.53846153846154,2,2,2,1, ,4,4,5, ,5,4,3,3,2,3,2,8,1, , ,1,2,4,1, , , , , , , , , , ,3,3,4,4,5,4,4,8,2,2,3,2,5,4,5,3,4,5,2,1,2,5,4,4,5,3,4,4,4,4,3,4,2,2,2,4,2,5,4,1,2,1,2,1,3,2,2,3,4,4,3,4,2,1,4,4,4,4,4,4,4,5,4,2,3,3,2.23076923076923,2,4,5,2,2,1,2,2,2,1,3,5,1,2,36.9,37,2,36.95,1,3,1,1,-.770934855340896,.635392961923692,Kassel
1994,2,2,1,2,2,2,2,1,1,1,2,4,1,1,2,1,2.44444444444444,0,4.33333333333333,2,73,3, ,1.63636363636364,1,3,2,2,2,4,2,2,2,2,3,5,1,2,2,5,2,2,1,2,3,6,2,2,2,2,3,2,2,2,2,2,2,7,7,2,4,10:07:47,1.8,2,4,5,5,5,4,4,5,4,3,5,4,4,6,5,5,4,5,5,29,4.16666666666667,1.63636363636364,2,3,2,2,1,1,2,1,1,1,2,1,3,2,4,1,2,1,1,3,1,4,5,5,5,5,2,4,4,4,5,4,4,4,4.23076923076923,2,2,2,1, ,4,4,5, ,4,2,7,6,1, ,2,8,3,1,7,4,1, ,2,Sportverein Kampfsport,-,-,-,-,4, , , , ,5,3,6,6,3,2,3,7,3,1,3,1,5,5,1,2,5,2,2,1,4,5,3,4,5,5,3,4,4,4,4,4,2,1,3,4,1,2,4,1,4,2,3,2,4,5,2,2,3,4,4,2,2,1,4,4,4,3,3,1,5,4,4,4,5,2,2.30769230769231,2,3,3,2,2,2,2,2,3,2,4,5,1,2,36.87,36.72,2,36.795,1,-4,1,1,-.669767219403087,-.166538722908214,Kassel
1992,2,4,1,4,2,4,2,1,2,2,2,2,2,4,2,2,5,0,4.77777777777778,3.22222222222222,52,4.5, ,2.36363636363636,1,7,6,5,5,6,4,5,7,6,1,7,2,7,6,7,2,2,5,6,3,7,3,5,5,2,3,2,6,3,5,3,5,7,7,3,6,10:02:01,2.4,2,0,5,5,5,4,5,5,5,4,5,5,5,7,5,5,7,6,5,26,4.66666666666667,3.63636363636364,4,5,5,5,5,3,2,2,4,1,4,2,4,4,4,4,4,1,2,4,2,3,1,4,1,2,3,4,1,2,3,1,4,4,2.53846153846154,2,2,2,1, ,2,2,5, ,4,3,8,5,2,2,2,8,3,1,2,4,1, ,2,studentische Unternehmensberatung, , , , ,6, , , , ,4,5,5,4,6,4,5,8,3,1,1,2,4,4,5,5,2,2,2,1,4,5,3,5,4,4,5,3,4,3,4,5,1,1,1,4,3,4,2,2,2,4,1,4,4,4,1,1,4,4,2,4,3,2,4,5,1,5,5,1,5,5,5,4,1,4,3.61538461538462,4,5,4,3,2,4,4,4,3,2,5,5,3,4,36.74,36.73,2,36.735,1,7,1,1,1.65708840716652,1.38004381212475,Kassel
1959,1,1,1,2,4,1,1,2,2,1,1,2,1,2,3,2,1.5,0,4.77777777777778,2.11111111111111, ,1.5, ,1.54545454545455,1,2,1,1,2,6,1,1,2,1,1,1,2,1,1,1,1,1,1,1,1,2,2,2,2,2,1,1,1,1,1,1,1,5,1,1,1,11:02:21,2,2,0,5,5,5,4,5,5,5,4,5,5,5,6,3,2,2,2,2,26,4.5,2,4,2,4,2,2,1,1,1,2,1,2,2,4,1,4,1,3,1,1,2,1,1,5,4,2,4,5,5,2,4,5,2,3,2,3.38461538461538,2,2,1,3,3,1, ,1, ,4,2,6,5,1, ,1, ,3,1,8,3,2,3,1, , , , , , , , , , ,5,5,4,6,4,3,5,7,2,1,3,1,5,5,3,2,5,5,4,1,2,5,3,4,5,5,5,5,2,2,4,2,1,1,1,4,1,5,5,1,5,4,1,4,4,4,2,2,3,1,4,3,2,1,5,5,5,5,4,3,2,4,4,4,2,1,1.92307692307692,5,2,2,2,2,1,1,2,1,1,3,5,1,2,36.6,36.6,2,36.6,1, ,1,1,-1.52969212487446,-1.71312125794118,Kassel
1995,2,2,1,2,2,1,2,1,1,2,2,2,3,2,3,2,1.77777777777778,3,4.88888888888889,2.66666666666667,78,1.88888888888889,2,1.63636363636364,1,3,1,1,2,2,2,1,3,1,1,1,1,1,4,2,1,4,1,2,1,4,2,1,1,2,1,7,1,2,1,1,1,2,3,1,1,9:59:25,2.4,2,0,5,5,4,5,5,5,5,5,5,5,5,7,6,6,4,4,4,20,2.5,2.54545454545455,4,3,4,3,4,1,1,1,1,2,4,2,3,2,2,3,2,4,4,2,1,3,4,4,4,3,3,4,5,4,4,3,5,3,3.76923076923077,2,1,2,1, ,4,4,5, ,7,5,8,8,2,1,2,8,1, , ,1,1, ,1, , , , , , , , , , ,4,2,2,2,3,2,3,7,3,2,4,3,4,4,2,2,4,5,5,2,3,4,3,5,4,4,5,5,4,4,5,4,1,2,1,1,4,5,3,4,2,2,3,4,4,3,3,3,3,4,2,4,4,2,3,5,3,4,4,1,5,5,5,4,2,4,2,2,3,4,2,1,1,2,2,2,2,3,4,1,1,36.5,36.4,2,36.45,1,8,1,1,-1.27677303502994,-1.31215541552522,Kassel
1991,2,2,1,2,2,1,1,3,1,1,1,1,2,2,4,3,3.05555555555556,0,2.77777777777778,3.66666666666667,82,4.72222222222222, ,1.54545454545455,1,4,3,4,4,4,2,3,4,3,5,5,1,3,1,3,3,2,1,4,6,4,5,5,4,4,4,4,5,4,7,6,3,7,6,3,4,10:31:02,2.4,2,0,5,2,4,3,4,2,2,1,4,3,3,3,2,2,3,3,3,19,3.33333333333333,2.72727272727273,2,3,4,4,3,1,3,3,3,2,2,4,5,3,4,3,4,2,4,4,2,4,4,4,2,4,2,3,3,3,4,4,4,4,3.46153846153846,2,2,2,1, ,4,1,5, ,5,1,8,5,1, ,2,8,3,1,6,4,1, ,1, , , , , , , , , , ,2,5,5,4,2,2,3,7,2,5,3,2,4,4,2,2,4,4,2,1,1,4,5,4,4,2,3,3,3,3,2,1,3,1,3,2,1,4,4,1,4,4,4,3,4,3,3,2,1,1,4,2,1,1,3,4,1,1,3,3,2,4,4,3,2,4,2.46153846153846,2,2,3,2,2,2,3,3,3,2,3,5,2,3,36.4,36.7,1,36.55,1,10,1,1,-.113345221745138,1.60916715064815,Kassel
1990,1,2,1,2,1,1,2,2,4,1,1,1,1,3,4,2,3.33333333333333,0,3.55555555555556,1.11111111111111,53,2.61111111111111, ,1.63636363636364,1,3,2,2,3,2,5,1,6,2,4,6,4,5,2,3,1,6,3,3,4,2,2,2,2,1,4,6,2,2,2,2,2,4,2,2,3,12:05:27,2.2,2,1,5,4,4,4,5,2,3,2,4,4,3,2,1,1,2,1,2,20,1.83333333333333,1,1,1,1,1,1,1,1,1,1,1,1,1,1,1,2,1,1,1,1,1,1,4,3,4,3,4,3,5,3,4,4,4,5,4,3.84615384615385,1,2,2,1, ,4,2,5, ,2,1,4,3,2,1,2,7,3,2,7,1,1, ,2,Rollenspielgruppe, , , , ,2, , , , ,1,2,1,1,1,5,1,8,1,4,2,4,4,1,1,2,1,5,2,1,1,5,4,5,4,4,3,4,1,1,2,1,3,3,3,2,3,5,2,2,2,4,4,2,3,4,2,1,2,4,1,1,1,3,3,4,1,1,1,4,2,2,1,2,1,2,2,2,2,3,2,2,1,2,2,2,2,3,3,1,2,36,36.1,2,36.05,1,4,1,1,.139573868099385,-.567504565324167,Kassel
 ,1,2,1,2,1,2,1,1,1,2,1,1,3,2,4,2,3.16666666666667,0,3.88888888888889,4.11111111111111, ,4.44444444444444, ,1.36363636363636, ,5,3,4,2,4,3,1,5,5,4,3,2,4,2,2,3,3,2,4,3,4,4,6,4,5,5,3,3,3,6,6,4,7,7,3,3,11:28:13,2.4, ,0,5,5,4,5,5,3,2,2,5,4,4,5,3,4,2,3,4,17,3.66666666666667,3.27272727272727,4,4,4,3,3,2,4,4,2,2,4,5,5,4,5,5,4,2,3,4, ,2,3,4,2,2,2,3,3,4,4,3,5,4,3.15384615384615, , ,2,1, ,4,1,5, ,5,1,8,5,1, ,2,8,3,1,4,4,1, ,1, , , , , , , , , , ,3,5,5,4,3,2,4,7,2,1,4,2,4,4,1,2,5,4,4,1,2,3,4,4,4,3,4,3,3,3,2,2,3,2,3,2,1,4,4,1,4,4,4,4,4,2,4,2,2,1,5,2,2,1,4,4,2,2,4,4,3,3,4,3,2,4,2.46153846153846,3,3,3,2,2,1,2,2,3,2,3,5,2,4,35.81, , ,35.81,1, ,1,1,-.012177585807329,1.3227629774939,Kassel
1994,2,3,2,3,2,3,4,2,2,2,2,2,3,2,3,2,4.44444444444444,0,3.88888888888889,3.77777777777778,77,4.33333333333333, ,2.45454545454545,1,4,4,4,6,4,4,5,6,4,4,4,5,4,4,5,5,4,4,4,4,5,4,4,4,4,4,4,4,4,4,4,5,4,6,4,6,10:45:17,2.4,2,0,5,4,4,4,4,4,3,4,4,4,4,6,6,2,3,4,1,20,4.83333333333333,3.18181818181818,4,4,3,4,4,2,2,3,2,4,3,4,4,4,4,4,3,4,3,4,2,4,4,4,3,4,2,4,2,2,4,3,3,3,3.23076923076923,2,2,2,1, ,4,4,5, ,5,2,8,1,2,8,2,8,1, , ,3,2,1,1, , , , , , , , , , ,6,5,4,4,5,5,3,8,3,2,2,3,4,3,2,2,3,5,4,1,2,3,3,2,4,3,3,3,3,4,4,4,3,3,3,1,2,4,3,3,2,3,1,1,4,3,2,1,3,2,3,4,2,2,4,2,2,2,3,3,4,3,3,2,1,4,2.84615384615385,2,3,4,4,3,3,2,3,3,2,3,3,2,3,35.7,36.5,2,36.1,1,5,1,1,1.15125022747747,1.2082013082322,Kassel
1993,3,4,1,4,2,2,2,2,4,1,2,3,2,2,2,2,1.72222222222222,0,3,3.44444444444444,69,3.38888888888889, ,2.45454545454545,1,1,1,1,1,1,5,1,1,1,5,1,1,1,1,1,1,5,2,4,3,6,3,4,2,6,2,5,2,2,2,3,2,6,6,1,2,10:41:03,2.2,2,1,5,4,4,4,4,2,1,1,3,4,5,6,1,2,4,4,3, ,4.16666666666667,2.81818181818182,4,4,4,4,3,2,2,2,1,1,4,4,5,4,5,2,1,2,3,5,1,3,5,5,4,5,5,5,5,5,5,4,5,4,4.61538461538462,2,2,2,1, ,4,4,5, ,2,2,8,5,1, ,2,6,3,1,4,1,2,5,2,Fachschaftsrat,/,/,/,/,7,0,0,0,0,3,5,5,5,4,3,2,9,4,2,4,3,5,2,2,4,1,5,4,2,1,5,5,5,4,3,3,3,4,2,4,2,3,2,4,2,3,4,2,2,3,2,4,4,3,2,2,1,2,2,3,1,1,1,4,5,2,2,1,1,1,3,2,4,1,2,2.38461538461538,2,4,4,2,1,2,2,4,2,2,4,4,1,1,35.7,35.8,2,35.75,1,-1,1,1,-1.32735685299884,.234427119507739,Kassel
1995,3,3,1,3,4,3,3,2,1,1,2,2,2,2,2,2,2,0,4.66666666666667,2.66666666666667,79,1.55555555555556,10,2.36363636363636,1,3,2,2,1,1,1,6,1,3,1,6,1,1,2,1,1,2,1,1,1,1,1,1,1,1,1,7,1,1,1,1,1,3,3,1,1,10:18:12,2,2,0,4,5,5,5,5,4,4,4,5,5,5,7,7,7,7,5,5,19,5,2.63636363636364,4,4,4,4,2,1,1,2,4,1,2,2,4,2,4,2,2,2,2,4,1,3,3,5,2,3,2,2,2,3,2,4,2,2,2.69230769230769,2,1,1,1, ,4,4,4,4,4,2,3,3,1, ,2,3,3,1,1,3,1, ,1, , , , , , , , , , ,5,5,5,5,5,5,5,8,1,5,3,4,5,2,2,4,2,4,3,2,2,4,2,3,3,4,4,4,4,3,3,3,1,1,1,3,4,4,2,3,2,2,1,4,4,3,2,3,2,4,2,4,4,4,4,2,4,4,4,2,3,3,4,3,4,2,2.69230769230769,3,3,2,2,2,3,3,3,3,3,3,4,2,3,37.4,37.2,2,37.3,1,0,1,1,-1.07443776315432,-1.65584042331033,Kassel
1995,2,2,1,2,2,2,2,2,2,2,1,2,2,2,4,2,2.27777777777778,0,3.88888888888889,2,81,2.22222222222222, ,1.81818181818182,1,2,3,2,2,2,3,5,2,4,2,2,2,2,1,2,1,2,2,2,2,5,3,1,1,1,2,2,2,2,2,2,1,4,4,2,2,10:29:25,2.4,2,2,4,4,4,4,4,4,4,3,4,4,4,5,6,3,3,4,3,17,4.5,1.45454545454545,2,1,4,1,1,1,1,1,1,1,2,3,1,1,2,4,1,2,2,2,1,3,4,4,4,4,4,4,3,4,5,4,5,4,4,2,2,1,1, ,4,2,4,4,5,5,3,3,2,1,2,7,1, , ,1,1, ,1, , , , , , , , , , ,5,5,5,4,4,4,5,8,2,4,3,3,4,3,2,2,3,4,4,1,2,4,4,3,4,3,3,3,3,3,2,2,1,1,4,2,3,3,3,3,2,2,4,2,4,3,2,2,3,3,4,4,2,2,4,4,2,2,3,2,4,2,4,4,2,4,2.38461538461538,2,3,3,3,2,2,2,3,2,2,3,4,2,2,37.03,36.97,2,37,1,3,1,1,-.8215186733098,-.96847040774012,Kassel
1997,4,2,2,2,3,3,3,2,2,3,3,3,2,4,2,2,3.11111111111111,0,4.44444444444444,3.66666666666667,88,2.11111111111111, ,2.63636363636364,1,2,3,2,2,4,3,5,3,3,1,3,4,2,3,3,2,5,6,1,2,4,2,1,2,1,1,2,2,2,1,1,2,5,5,1,3,12:02:36,2.6,2,16,4,5,4,4,5,4,5,3,5,5,4,5,7,4,4,2,3,21,4.5,3.27272727272727,5,4,4,4,4,1,3,2,3,2,4,4,4,3,4,4,3,3,4,4,1,3,5,5,4,3,3,3,4,4,4,3,4,3,3.69230769230769,2,2,2,1, ,4,4,4,2,6,3,4,3,1, ,2,6,3,2,4,2,1, ,1, , , , , , , , , , ,6,3,5,4,5,4,5,8,2,2,4,1,4,4,2,2,3,3,2,2,2,3,3,4,3,5,4,4,4,3,4,4,1,1,1,3,3,4,2,1,4,2,2,4,4,5,3,2,4,4,2,3,4,2,4,3,4,4,3,2,2,4,3,3,2,4,2.92307692307692,3,4,4,3,3,3,3,3,2,3,2,4,3,2,36.8,36.8,2,36.8,1,1,1,1,-.0627614037762333,-1.08303207700182,Kassel
1996,1,2,1,3,2,2,3,1,3,3,2,2,3,3,3,3,2.44444444444444,0,4.11111111111111,2,71,1.83333333333333, ,2.09090909090909,1,2,2,1,3,6,1,4,3,6,1,3,1,2,1,2,1,4,1,1,3,2,1,1,1,1,1,1,2,2,2,3,1,5,4,1,1,10:13:03,2.8,2,12,4,5,5,5,4,5,3,3,4,3,5,4,4,2,2,1,2,30,3.83333333333333,1.27272727272727,3,1,1,1,1,1,1,2,1,1,1,3,3,1,2,2,1,1,1,4,1,5,2,2,1,4,2,3,3,3,3,3,2,3,2.76923076923077,2,2,2,1, ,4,2,5, ,5,5,7,7,1, ,2,3,1, , ,1,2,8,2,DLRG, , , , ,6, , , , ,3,3,5,5,4,3,3,7,3,4,2,3,5,1,4,2,2,1,3,1,3,5,5,5,4,4,5,5,3,3,4,3,1,2,1,3,3,3,2,2,1,4,1,4,4,5,1,2,2,4,4,3,4,3,2,4,2,5,5,1,3,2,3,3,1,4,2.76923076923077,3,4,3,2,3,3,2,3,2,3,4,5,1,3,36.6,36.2,2,36.4,1,4,1,1,-.669767219403087,-1.36943625015607,Kassel
1992,2,2,1,2,2,2,2,2,2,2,2,2,2,2,2,3,3.33333333333333,0,4.33333333333333,2.44444444444444,99,2.16666666666667, ,1.90909090909091,1,4,2,2,5,4,5,2,2,3,2,3,3,5,5,2,5,5,1,2,2,4,2,2,1,2,2,2,1,1,1,1,1,6,6,1,2,9:49:34,2.2,2,27,4,5,4,4,5,4,3,4,5,5,4,6,6,4,6,5,6,15,5,2.18181818181818,2,4,2,4,2,1,2,1,2,2,2,3,4,1,4,1,1,2,2,4,1,2,3,2,3,4,2,2,2,4,3,4,2,4,2.84615384615385,2,2,2,1, ,4,4,4,1,8,3,5,5,1, ,2,6,1, , ,1,1, ,1, , , , , , , , , , ,7,5,5,5,4,4,5,7,3,2,2,2,4,4,2,3,4,4,3,2,2,3,4,4,3,5,2,4,3,2,3,3,1,3,2,3,2,4,3,2,4,2,2,3,3,1,2,2,2,3,4,4,2,2,3,4,3,3,2,4,2,4,3,3,4,1,2.76923076923077,3,3,4,2,2,3,2,3,3,3,3,4,2,3,36.6,36.6,2,36.6,1,-2,1,1,.139573868099385,-1.02575124237097,Kassel
1994,3,4,1,3,2,3,3,4,2,4,3,2,3,3,4,2,4.27777777777778,0,4.88888888888889,3.88888888888889,58,4.05555555555556, ,2.90909090909091,1,5,5,4,4,4,5,4,4,5,4,4,4,4,4,4,5,4,4,4,4,4,4,4,4,4,4,4,4,4,4,4,4,5,4,4,4,10:56:35,2.8,2,1,4,5,5,4,5,5,5,5,5,5,4,2,2,1,2,2,1,9,4.5,3.54545454545455,4,3,4,4,5,2,4,3,3,3,4,4,5,3,4,4,3,4,4,4,2,3,2,4,4,4,2,4,2,2,3,4,3,4,3.15384615384615,2,2,2,1, ,4,2,5, ,8,4,2,1,1, ,2,5,1, , ,1,1, ,1, , , , , , , , , , ,4,5,5,5,4,4,4,6,2,3,4,2,5,4,3,3,3,5,4,2,3,5,3,4,3,3,4,3,3,3,3,3,2,2,2,2,1,4,3,1,4,4,2,3,3,4,1,2,4,4,2,5,2,1,4,3,2,2,2,1,3,4,2,2,2,2,3.46153846153846,4,4,4,3,3,4,3,4,3,3,4,4,3,3,36.5,36.4,2,36.45,1,0,1,1,.99949877357076,.921797135077944,Kassel
1989,1,2,1,2,1,1,1,2,1,1,2,4,2,1,3,3,1.72222222222222,0,4.33333333333333,2.55555555555556,88,1.83333333333333, ,1.36363636363636,1,3,1,1,4,5,1,1,1,1,1,1,1,1,4,2,1,1,1,1,1,1,2,1,1,1,1,1,1,2,1,2,1,7,7,1,1,10:53:36,2.6,2,26,4,5,4,4,5,5,5,1,5,5,5,5,4,5,2,4,4, ,2.16666666666667,1.81818181818182,3,1,3,2,1,1,2,1,2,1,3,3,2,1,4,3,1,3,4,2,1,3,3,3,5,3,4,4,4,3,5,5,3,3,3.69230769230769,2,2,2,1, ,4,2,5, ,4,3,6,6,2,1,2,8,1, , ,3,1, ,2,Kraftsportgruppe,Ausdauersportgruppe,Hundetreffgruppe,Keine,Keine,4,4,3,0,0,2,2,2,3,2,2,2,8,3,1,5,3,3,3,3,1,3,5,4,1,2,4,3,5,4,5,5,5,3,2,4,3,1,1,1,1,3,5,5,2,1,4,3,1,3,4,1,5,2,4,2,1,1,3,3,4,4,3,2,2,2,4,2,4,1,1,1.69230769230769,2,2,3,2,1,1,1,3,2,1,2,5,1,1,36.5,36.7,2,36.6,1,0,1,1,-1.32735685299884,-1.36943625015607,Kassel
1994,2,2,2,2,2,3,2,4,2,2,2,2,1,4,4,2,2.5,0,3.66666666666667,2.44444444444444,55,2.72222222222222, ,2.27272727272727,1,2,2,2,2,3,4,4,5,2,3,3,2,2,3,1,1,2,2,6,2,6,2,2,2,2,2,2,1,2,2,3,1,5,5,2,2,10:20:36,2.6,2,1,4,5,3,5,5,3,3,1,4,4,4,5,5,3,3,5,6,39,4,2.27272727272727,4,4,1,5,1,1,1,1,4,1,2,1,4,2,3,3,2,1,4,2,1,5,5,5,3,4,4,4,4,4,4,5,4,4,4.23076923076923,2,2,1,1, ,4,4,4,1,1, ,7,6,1, ,2,8,3,8,8,1,2,2,2,Yoga,Bogenschießen, , , ,1,10, , , ,3,4,4,4,4,5,5,8,3,2,4,3,4,4,4,3,3,4,3,2,2,3,4,2,4,3,3,4,3,3,4,3,2,3,2,3,3,3,3,3,2,2,4,4,4,4,2,2,2,3,4,4,2,2,4,4,4,3,3,4,4,3,4,2,2,3,2.61538461538462,2,5,3,2,2,2,2,3,2,2,4,3,2,3,36.5,36.7,2,36.6,1,5,1,1,-.619183401434182,-.452942896062466,Kassel
1989,2,4,2,3,3,2,3,3,2,2,2,2,2,1,3,1,4.27777777777778,0,3.77777777777778,2.77777777777778,91,3.44444444444444, ,2.54545454545455,1,5,4,4,5,6,5,4,4,5,3,4,4,4,4,4,3,6,3,4,3,6,3,3,3,2,4,4,2,2,4,3,3,6,4,2,4,10:00:34,1.8,2,0,4,4,4,4,4,3,4,4,4,3,5,6,5,2,4,6,6,12,5.66666666666667,2.54545454545455,4,3,2,3,3,2,2,2,3,1,3,3,3,2,4,2,2,3,3,3,2,4,4,4,4,4,3,4,4,3,5,4,4,5,4,2,2,2,1, ,4,2,5, ,2,1,3,2,1, ,2,4,3,1,2,1,2,2,1, , , , , , , , , , ,7,5,6,6,5,5,5,8,0,1,3,1,5,3,1,2,4,2,2,1,1,4,4,4,3,3,4,4,3,3,4,3,2,2,2,4,1,3,4,2,3,3,2,2,3,3,3,4,3,3,4,3,2,3,4,4,3,2,3,2,3,2,3,3,2,4,2.30769230769231,2,3,3,2,2,2,2,3,2,2,3,4,2,2,36.42,36.41,2,36.415,1,2,1,1,.99949877357076,.29170795413859,Kassel
1996,2,2,2,2,3,2,2,2,2,2,4,2,3,2,3,3,1.94444444444444,0,3.66666666666667,2.33333333333333,88,2.16666666666667, ,2.27272727272727,1,3,1,1,2,2,1,2,1,3,1,6,5,1,1,1,1,1,2,1,1,2,1,7,1,1,1,7,1,1,1,1,1,5,5,1,1,10:30:17,2.6,2,0,4,4,4,4,4,3,4,2,4,4,4,6,7,4,6,5,6,17,4.16666666666667,2.27272727272727,4,3,2,3,2,1,3,1,2,2,2,3,4,2,3,2,1,1,1,4,1,3,3,4,2,3,3,2,3,4,4,4,4,3,3.23076923076923,2,2,2,1, ,4,4,4,1,3,3,6,6,2,1,2,8,1, , ,1,1, ,1, , , , , , , , , , ,5,4,5,4,4,3,3,8,3,2,2,1,5,4,2,3,3,2,3,1,2,4,4,3,4,4,3,4,3,3,3,3,2,2,2,4,2,3,3,2,3,2,2,4,4,3,1,2,3,3,3,4,2,2,4,4,3,3,2,2,4,3,2,3,4,2,2.53846153846154,3,3,3,2,2,2,2,3,3,3,3,4,2,2,36.4,36.8,2,36.6,1,1,1,1,-1.12502158112323,-1.02575124237097,Kassel
1990,3,3,3,2,3,3,1,1,3,1,3,3,3,2,4,3,2.27777777777778,0,4.88888888888889,3,71,2.05555555555556, ,2.36363636363636,1,4,1,1,2,6,1,2,1,6,4,2,1,1,5,1,1,1,1,1,1,1,1,1,1,2,1,7,2,1,1,1,1,7,2,1,5,10:24:42,3,2,16,4,5,4,5,5,5,5,5,5,5,2,2,2,2,2,1,1,70,2.16666666666667,2.81818181818182,3,3,3,3,3,3,3,3,3,1,3,5,5,1,4,3,1,2,1,5,1,3,4,3,3,4,1,4,3,5,5,3,3,2,3.30769230769231,1,2,1,1, ,4,4,4,4,3,3,4,4,2,1,2,8,3,8,8,1,2,8,2,Gefahrenabwehr,Sportverein 1,Sportverein 2,Uni, ,7,7,7,7, ,5,2,2,1,1,2,3,10,3,4,4,4,3,3,2,4,2,4,2,4,3,4,3,5,2,4,3,5,4,2,3,3,2,1,1,2,4,1,1,2,2,4,3,3,5,5,1,1,4,4,4,2,3,1,4,4,4,4,3,3,2,1,1,3,3,3,1.84615384615385,1,1,3,2,2,1,2,3,1,2,2,3,3,1,36.4,36.6,2,36.5,1,1,1,1,-.8215186733098,-1.14031291163267,Kassel
1996,2,3,2,2,1,1,2,2,2,2,4,1,1,2,4,1,3.72222222222222,0,3.44444444444444,2,84,2.33333333333333, ,2.09090909090909,1,6,5,1,1,4,6,6,5,3,2,5,5,2,5,4,1,5,1,5,4,5,1,2,1,1,2,2,2,2,2,3,1,2,3,2,2,20:08:15,1.8,2,3,4,4,4,4,4,2,3,2,4,4,4,5,4,2,3,4,1,16,5.16666666666667,1.63636363636364,4,3,1,3,1,1,1,1,1,1,1,2,4,1,4,1,1,1,1,3,1,3,5,4,3,2,1,4,3,3,4,3,5,4,3.38461538461538,1,2,1,1, ,4,4,4,2,4,2,5,3,2,1,2,6,1, , ,1,1, ,2,Rugby, , , , ,2, , , , ,5,5,5,4,6,6,5,8,2,4,2,4,4,4,4,5,2,4,3,2,4,4,2,4,3,5,4,4,4,4,3,2,1,3,2,2,4,5,4,1,1,4,1,1,4,1,5,2,3,4,2,2,2,2,5,5,3,4,4,3,2,1,4,2,4,1,2.53846153846154,2,2,2,1,4,3,2,2,4,3,3,4,2,3,36.3,36.6,2,36.45,1,3,1,1,.493660593881716,-.853908738478419,Kassel
1995,3,4,3,3,4,4,2,4,5,2,2,3,2,2,4,4,4.77777777777778,0,4.33333333333333,2.11111111111111,61,5, ,3.27272727272727,1,4,6,4,4,6,7,5,7,4,4,4,3,4,3,7,4,6,4,7,4,7,5,7,4,5,4,6,5,4,3,5,5,6,6,3,4,11:04:14,3,2,2,4,5,4,5,5,5,4,2,5,4,5,5,5,4,4,4,1,16,4.83333333333333,2.54545454545455,4,4,3,4,3,1,1,1,2,1,4,1,4,1,3,2,2,1,2,3,2,2,1,3,2,5,1,3,2,1,3,1,2,2,2.15384615384615,2,2,2,1, ,4,4,5, ,2,2,8,6,1, ,2,8,1, , ,1,2,2,1, , , , , , , , , , ,5,5,6,5,4,4,5,7,3,2,2,3,5,2,3,2,2,2,3,1,3,5,5,2,3,3,4,3,3,3,3,4,2,2,3,4,4,4,4,3,4,5,2,1,4,1,3,4,2,4,5,3,3,3,2,4,2,2,2,4,3,2,2,4,1,3,2.92307692307692,3,3,3,2,3,4,2,4,3,4,2,5,1,4,36.3,36.8,2,36.55,1,9,1,1,1.4547531352909,1.8955713238024,Kassel
1996,2,1,1,2,1,1,1,2,3,1,2,2,1,2,2,2,1.44444444444444,0,4.55555555555556,3.33333333333333,62,2, ,1.54545454545455,1,4,1,1,1,2,2,1,1,2,1,1,3,1,1,1,1,1,1,1,2,2,1,1,1,1,2,2,1,2,1,2,3,7,4,1,2,10:07:18,1.8,2,2,4,5,5,5,5,4,4,3,5,5,5,5,7,5,3,6,6,21,4.33333333333333,3.18181818181818,4,4,4,4,3,3,3,2,3,2,3,4,3,3,4,2,2,4,4,4,1,3,5,4,4,4,3,4,3,4,4,4,4,3,3.76923076923077,2,2,2,1, ,4,4,4,2,4,3,5,5,2,1,2,8,1, , ,3,1, ,2,Sportfreunde, , , , ,2, , , , ,5,4,5,4,4,4,5,8,3,2,3,1,4,3,3,3,4,4,2,2,3,4,2,4,4,5,5,4,4,3,4,4,1,1,2,3,3,4,4,2,3,4,2,3,5,5,3,2,3,3,3,4,4,2,3,3,5,4,4,1,4,5,4,4,2,4,2.46153846153846,2,3,3,3,2,3,2,2,2,2,3,4,2,3,36.3,36.3,2,36.3,1,1,1,1,-1.58027594284337,-1.19759374626352,Kassel
1990,2,4,1,1,4,4,4,2,2,4,4,2,1,1,4,1,5.11111111111111,0,3.55555555555556,3,86,2.88888888888889,3,2.90909090909091,1,6,6,6,3,6,6,3,6,5,6,4,4,7,3,6,4,5,6,3,2,1,4,3,7,4,3,2,2,2,4,3,4,2,1,2,3,10:33:11,1.8,2,2,4,4,3,3,4,5,5,2,4,2,4,6,4,4,4,3,4,17,5.83333333333333,3.27272727272727,5,4,5,4,4,2,2,1,1,4,4,3,4,2,4,4,1,2,2,5,2,1,2,1,1,2,1,2,1,1,4,1,2,2,1.61538461538462,2,1,3,1, ,4,4,5, ,6,2,8,4,2,1,1, ,3,1,1,2,1, ,2,Schützenverein, , , , ,1, , , , ,6,6,6,7,6,4,5,7,1,4,5,3,4,2,1,2,2,4,2,1,2,4,5,5,3,2,3,3,3,3,4,4,2,2,1,2,2,3,3,2,3,2,1,1,4,3,2,3,2,2,4,2,1,4,3,4,2,4,1,4,3,3,2,4,5,2,2.69230769230769,2,4,3,2,2,2,3,2,3,3,4,5,1,4,36.2,36.8,2,36.5,1,9,1,1,1.75825604310433,-.281100392169915,Kassel
1996,4,4,2,3,2,2,4,3,1,2,2,2,2,3,2,2,4.05555555555556,0,3.88888888888889,2.77777777777778,48,3.27777777777778, ,2.63636363636364,1,6,5,5,2,4,6,5,6,5,2,3,2,4,4,5,2,5,2,5,2,6,2,5,1,2,4,4,2,2,2,2,4,5,6,3,2,10:49:37,2.2,2,0,4,4,4,4,4,5,3,3,4,4,4,4,4,5,4,5,3,42,3.66666666666667,2.18181818181818,4,4,2,4,2,1,2,1,2,1,1,2,4,1,4,2,1,4,3,4,2,2,2,2,4,5,2,3,2,4,3,2,4,3,2.92307692307692,1,2,2,1, ,4,2,5, ,8,8,8,5,2,8,2,1,3,1,4,1,2,5,2,Adventjugend Kassel, , , , ,7, , , , ,3,4,4,5,3,3,3,9,4,4,2,2,5,1,3,3,2,3,3,1,3,5,4,3,5,4,4,4,2,3,3,2,2,4,4,4,3,4,3,2,1,3,2,3,4,2,4,1,3,3,4,1,2,3,4,3,4,4,4,2,2,2,3,2,2,2,2.53846153846154,3,3,3,2,2,1,4,2,2,1,3,3,4,3,36.1,35.7,2,35.9,1,11,1,1,.797163501695143,.119865450246038,Kassel
1996,2,5,1,3,2,4,4,4,2,2,3,2,2,2,4,2,3.88888888888889,0,4.44444444444444,3.77777777777778,62,3.77777777777778, ,2.90909090909091,1,5,4,5,2,6,6,3,6,3,2,5,3,4,2,5,3,5,1,6,2,6,2,5,3,2,4,6,3,4,3,4,2,7,2,3,4,10:07:02,2.4,2,1,4,5,5,4,5,5,4,2,5,5,3,3,4,3,3,2,2,17,3,3.18181818181818,4,4,4,4,4,2,3,2,2,2,4,4,5,4,5,4,2,3,4,3,2,3,3,5,3,4,2,4,2,4,3,2,4,2,3.15384615384615,2,2,2,1, ,3,3,5, ,8,5,7,6,2,1,2,8,1, , ,1,1, ,1, , , , , , , , , , ,3,3,3,3,4,2,5,7,3,2,4,1,5,2,3,2,3,5,4,2,2,5,2,4,3,4,4,3,3,4,4,2,1,1,2,2,2,4,4,1,4,3,1,4,4,4,1,2,4,3,3,4,2,2,5,4,3,4,4,1,4,4,3,3,1,2,2.53846153846154,3,2,3,3,2,3,3,2,3,2,2,5,2,3,36.1,36.5,2,36.3,1,7,1,1,.645412047788429,.635392961923692,Kassel
1996,4,4,2,4,4,4,4,4,2,3,4,3,3,2,3,2,2.44444444444444,0,4.66666666666667,2,62,2.5, ,3.54545454545455,1,3,2,2,3,2,3,4,2,3,1,2,2,2,2,3,2,4,2,3,2,4,1,2,3,1,1,1,2,2,4,5,1,4,4,2,3,10:03:59,2.6,2,2,4,5,5,5,5,5,5,2,5,5,4,6,5,4,4,2,4,16,2.66666666666667,2.18181818181818,4,2,2,2,2,2,2,2,2,2,2,2,2,2,2,2,2,2,2,2,1,3,4,4,3,2,3,2,2,4,4,3,3,4,3.15384615384615,2,2,2,1, ,4,4,4,4,4,3,4,3,1, ,2,8,1, , ,1,1, ,1, , , , , , , , , , ,3,2,3,3,3,2,2,7,2,3,2,2,5,4,2,3,2,4,2,1,2,4,3,4,4,4,4,3,3,3,3,3,2,2,2,4,2,4,4,2,2,3,1,1,4,3,2,3,3,3,4,3,4,2,5,4,5,5,4,2,4,3,3,3,3,2,2.23076923076923,2,3,3,2,2,3,2,2,2,2,2,4,2,2,36.1,36.5,2,36.3,1,7,1,1,-.669767219403087,-.682066234585868,Kassel
1984,2,4,1,5,1,1,2,4,3,2,1,2,1,3,5,5,3.5,0,2.66666666666667,2.55555555555556, ,4, ,2.36363636363636,1,3,3,4,4,4,3,2,4,5,5,3,5,3,2,3,4,3,3,5,2,5,4,4,4,4,3,3,5,4,3,3,2,6,6,4,5,11:04:33,3.2,2,8,4,3,3,3,2,3,2,4,2,2,4,5,2,1,3,2,1,25,4.33333333333333,1.90909090909091,1,4,1,4,1,1,2,1,4,1,1,4,4,2,5,1,1,1,1,4,1,2,2,3,2,3,2,2,3,3,4,2,3,2,2.53846153846154,1,2,1,1, ,4,2,4,1,2,2,6,5,1, ,1, ,2,3,8,3,1, ,1, , , , , , , , , , ,3,5,5,5,4,4,3,7,2,4,2,2,4,4,1,1,3,4,1,4,1,4,3,3,4,1,4,3,2,2,3,2,3,3,2,1,3,4,2,2,1,1,1,5,1,3,2,2,3,5,2,2,1,1,3,4,1,3,1,3,1,1,1,1,3,1,2.84615384615385,3,4,3,2,2,2,3,3,2,3,4,3,3,3,36,36,2,36,1, ,1,1,.291325322006098,.864516300447094,Kassel
1987,2,2,2,3,2,2,2,3,3,2,2,2,3,3,4,3,4.22222222222222,24,3,3.44444444444444,62,3.61111111111111, ,2.27272727272727,1,4,5,4,5,5,5,4,4,5,4,4,4,5,3,4,3,4,4,4,3,4,4,3,3,3,3,4,3,4,2,4,3,5,5,4,4,10:46:32,3,2,40,4,4,3,3,4,3,2,2,3,3,3,2,3,2,3,3,3,11,4,2.27272727272727,2,3,2,2,2,2,2,2,3,3,2,3,4,4,4,3,2,4,4,3,1,3,3,2,2,2,3,3,2,2,2,2,4,3,2.53846153846154,1,2,4,1, ,2,2,4,1,2,2,4,2,1, ,2,2,1, , ,1,1, ,2,Hochschulgruppe, , , , ,2, , , , ,5,3,4,4,4,4,4,7,1,2,3,3,4,2,3,3,2,4,3,2,3,3,3,4,4,4,4,4,2,4,3,2,2,4,3,3,3,3,3,3,4,2,3,3,3,4,3,3,2,3,4,3,2,4,3,4,4,4,2,3,2,2,2,2,3,2,2.92307692307692,3,3,3,3,3,3,2,3,3,3,3,3,3,3,36,36.4,2,36.2,1,7,1,1,.948914955601856,.463550458031141,Kassel
1996,1,2,1,2,1,1,1,3,2,2,1,2,2,2,3,2,3.22222222222222,0,2.22222222222222,1.77777777777778,71,3.88888888888889, ,1.54545454545455,1,4,4,2,2,2,2,2,2,2,6,6,3,5,4,4,2,5,1,5,3,6,4,5,4,5,3,5,2,1,2,3,3,6,6,4,3,10:00:43,2.2,2,0,4,3,1,4,2,1,3,2,2,2,4,4,4,2,2,1,2,9,1.5,1,1,1,1,1,1,1,1,1,1,1,1,2,4,1,1,1,1,1,4,1,1,5,5,4,4,5,5,4,4,5,5,4,5,4,4.53846153846154,2,2,2,1, ,4,1,4,1,2,2,5,3,1, ,2,8,1, , ,1,1, ,1, , , , , , , , , , ,3,1,2,1,1,1,2,7,2,3,5,3,3,3,4,4,2,5,4,5,2,4,4,5,5,4,5,4,2,2,2,2,2,4,2,1,3,4,4,3,4,4,1,1,5,2,5,4,1,1,1,2,1,4,2,5,2,2,2,2,2,2,4,4,1,3,1.53846153846154,2,2,2,2,1,3,1,1,1,1,2,4,1,1,36,36.5,2,36.25,1,4,1,1,.0384062321615757,.749954631185393,Kassel
1984,2,2,2,2,2,2,4,4,2,4,4,3,2,2,4,3,2.22222222222222,0,4.55555555555556,3.77777777777778,86,3.44444444444444, ,2.72727272727273,1,2,2,1,3,2,2,2,3,2,1,2,2,3,3,4,3,2,1,3,5,2,3,5,4,3,4,4,3,3,5,3,3,4,2,3,3,9:47:58,2.8,2,2,4,5,4,3,4,5,5,5,5,5,3,4,2,2,4,5,5,26,3.16666666666667,3.27272727272727,5,5,4,2,4,2,2,4,2,2,4,4,4,2,5,4,2,5,4,4,1,2,4,2,2,4,3,4,2,3,3,1,2,2,2.61538461538462,2,2,1,1, ,4,4,2,2,8,4,4,4,1, ,2,3,3,2,8,1,1, ,1, , , , , , , , , , ,3,4,3,3,3,3,4,8,1,2,2,4,5,2,2,3,3,4,4,4,2,4,4,5,4,3,3,3,3,3,2,2,3,2,2,4,1,4,3,2,2,2,1,2,2,4,1,3,4,2,4,4,2,2,5,5,4,3,3,3,4,3,4,3,4,2,2.84615384615385,2,4,3,3,3,3,3,2,4,2,4,3,2,2,36,36.2,2,36.1,1,5,1,1,-.872102491278705,.29170795413859,Kassel
1990,2,3,1,2,1,1,2,2,1,1,2,2,2,1,3,2,1.61111111111111,0,3.77777777777778,1.77777777777778,77,1.38888888888889,2,1.63636363636364,1,2,1,1,1,2,1,1,1,2,1,7,1,1,2,1,1,2,1,1,1,2,2,1,1,1,1,1,1,2,2,1,1,2,2,1,2,10:55:22,2,2,1,4,5,3,5,5,4,2,3,4,3,4,5,2,2,3,3,3,15,2.66666666666667,1.09090909090909,1,1,1,1,1,1,1,1,1,2,1,1,4,1,4,1,1,1,1,2,1,2,2,2,1,3,3,3,2,2,4,2,4,3,2.53846153846154,1,1,1,1, ,4,2,4,1,3,1,8,4,1, ,2,5,3,1,2,3,1, ,1, , , , , , , , , , ,3,3,2,4,2,2,2,8,2,3,4,4,4,3,3,3,3,4,4,3,3,4,3,4,5,3,4,4,2,5,4,3,2,4,2,2,4,5,2,2,3,3,2,1,4,1,2,4,2,2,5,2,1,3,3,4,2,1,3,1,2,2,2,2,2,1,1.92307692307692,2,2,2,2,3,2,2,2,2,2,1,3,1,2,35.9,36.2,2,36.05,1,5,1,1,-1.42852448893665,-1.82768292720288,Kassel
1979,2,1,1,2,2,2,1,2,3,1,2,2,2,2,3,2,1.44444444444444,0,4.22222222222222,3,54,2.55555555555556, ,1.72727272727273,1,1,1,1,1,1,1,1,1,7,1,1,2,1,1,1,1,2,1,1,1,4,3,2,1,3,2,2,2,2,2,2,2,7,7,2,1,10:36:48,2.2,2,0,4,4,4,4,5,4,3,4,5,5,5,7,5,3,4,1,1,21,2.5,3,3,4,3,3,3,3,3,3,2,3,3,3,3,3,3,3,3,3,3,3,1,3,5,4,4,4,3,2,4,4,3,4,4,4,3.69230769230769,2,2,1,2,8,4,4,4,2,2,1,3,3,1, ,2,4,1, , ,2,1, ,1, , , , , , , , , , ,4,1,1,3,3,3,3,8,1,1,3,1,5,5,2,2,4,1,2,1,2,3,4,4,3,3,4,3,3,3,3,3,1,1,1,5,1,2,3,1,4,2,1,5,4,3,2,2,2,4,5,2,1,1,5,5,3,2,4,3,2,4,2,3,2,1,2.23076923076923,2,2,3,2,2,2,2,3,2,2,3,4,2,2,35.9,36.3,2,36.1,1,5,1,1,-1.58027594284337,-.624785399955017,Kassel
1991,2,2,2,2,2,1,3,1,1,2,2,1,1,1,3,1,1.27777777777778,0,3.33333333333333,2.22222222222222,54,2.11111111111111, ,1.81818181818182,1,1,1,1,1,1,1,1,1,1,1,2,2,1,1,1,1,4,1,1,1,4,2,1,1,1,3,6,1,1,1,1,1,5,3,4,1,10:34:06,1.4,2,2,4,4,5,4,4,3,2,2,3,3,4,5,6,3,2,2,4,11,3.83333333333333,1.81818181818182,4,2,2,2,1,1,1,2,1,2,2,3,4,1,4,2,1,2,1,2,1,3,4,2,4,4,3,4,3,4,4,3,4,3,3.46153846153846,2,2,1,1, ,4,2,4,1,5,3,4,3,1, ,2,6,1, , ,1,1, ,1, , , , , , , , , , ,4,3,5,4,4,3,3,7,2,1,2,1,5,4,3,3,5,3,1,1,2,4,3,2,4,4,4,3,3,5,4,3,2,2,3,4,2,4,4,1,4,1,3,2,3,3,3,2,2,1,3,2,3,2,4,4,4,4,2,2,3,4,2,4,4,2,1.92307692307692,2,2,3,2,1,2,2,2,2,1,2,3,2,2,35.9,36,2,35.95,1,1,1,1,-1.73202739675008,-1.08303207700182,Kassel
1988,2,2,1,4,2,2,2,2,2,2,2,2,2,4,2,2,5.44444444444444,0,3.77777777777778,3,85,3.72222222222222, ,2.09090909090909,1,6,6,6,6,6,6,6,6,6,4,2,6,6,6,4,6,6,4,6,2,6,2,4,4,4,2,6,2,2,2,2,4,6,6,3,4,11:01:16,2.4,2,5,4,4,4,4,3,3,4,4,4,4,4,6,6,3,3,3,3,8,4.5,3.27272727272727,4,3,4,3,3,3,3,3,3,3,4,3,3,3,4,3,1,3,3,4,2,4,4,4,5,3,2,4,3,3,4,4,3,3,3.53846153846154,2,2,2,1, ,1, ,4,1,1, ,6,4,2,1,2,5,1, , ,1,1, ,1, , , , , , , , , , ,4,6,5,5,4,3,3,6,1,5,3,2,4,4,3,3,4,3,2,1,2,4,3,3,4,3,4,4,3,4,3,3,2,2,2,4,1,2,5,1,3,2,3,3,3,3,2,3,3,3,3,3,2,2,3,3,2,2,4,2,4,4,4,4,2,3,2.76923076923077,2,3,3,3,3,2,3,3,3,3,3,3,2,3,35.8,36.4,2,36.1,1,4,1,1,2.06175895091775,.578112127292842,Kassel
1996,2,2,1,2,1,2,4,2,2,2,2,1,2,1,3,2,3.44444444444444,24,4,3.11111111111111,77,3.22222222222222, ,2,1,4,4,4,2,4,4,4,5,3,5,4,2,4,2,2,5,2,2,3,2,5,3,3,2,2,2,2,2,4,3,3,3,5,6,3,5,9:26:24,1.8,2,2,4,4,5,4,5,4,2,4,4,4,4,6,5,4,3,2,3,30,5.83333333333333,3,5,4,4,4,4,2,2,2,1,1,4,4,4,3,4,2,1,2,3,5,2,4,4,4,4,4,5,5,4,5,5,3,4,4,4.23076923076923,2,2,2,1, ,4,4,5, ,8,8,8,7,2,1,2,6,1, , ,3,1, ,2,Karnevalsverein, , , , ,6, , , , ,6,6,6,7,5,5,6,7,3,1,1,3,4,2,1,1,4,5,3,1,2,4,4,2,3,4,2,4,3,2,4,3,1,2,1,2,1,3,3,1,3,4,3,1,3,4,2,2,4,2,4,2,1,4,2,5,2,1,3,3,2,2,2,3,4,2,2.15384615384615,1,3,3,3,2,2,2,2,2,1,4,4,1,2,35.8,36.4,2,36.1,1,5,1,1,.240741504037194,.0625846156151882,Kassel
1988,1,2,1,2,1,1,1,2,1,1,1,3,3,2,3,2,2.77777777777778,0,3.11111111111111,1.66666666666667,77,3.27777777777778, ,1.27272727272727,1,1,2,3,4,5,2,1,4,6,2,6,2,4,1,1,4,1,1,1,2,4,4,1,2,5,3,7,3,3,3,3,1,5,6,3,3,9:52:27,2.6,2,0,4,3,4,4,3,3,3,2,4,2,3,4,4,2,4,3,4,35,3.83333333333333,1.72727272727273,3,1,2,2,2,1,1,1,2,1,3,2,1,1,3,3,1,1,2,1,2,4,5,3,2,2,4,4,3,4,4,3,3,1,3.23076923076923,2,2,2,1, ,4,4,5, ,8,5,8,8,2,1,2,8,3,5,8,1,2,2,1, , , , , , , , , , ,3,4,4,4,4,4,4,9,3,2,4,3,4,3,4,4,2,4,2,2,3,4,4,2,4,4,4,4,3,4,3,2,1,2,2,4,3,3,4,3,1,1,3,1,3,3,4,3,3,2,4,2,1,1,3,2,2,3,3,2,2,2,2,2,4,1,2,2,2,2,2,2,1,2,2,2,3,2,4,2,2,35.6,36.4,2,36,1,5,1,1,-.36626431158966,.119865450246038,Kassel
1965,2,1,1,2,1,1,1,1,1,2,1,1,1,2,1,5,1.33333333333333,0,4.77777777777778,2, ,1.5, ,1.27272727272727,1,1,1,1,1,1,1,1,1,1,1,1,1,6,1,1,1,2,1,1,1,1,1,2,1,1,1,1,2,1,1,2,5,2,2,1,1,11:05:32,2,2,3,4,5,5,4,5,5,5,5,5,4,5,5,4,1,1,1,4,26,2.66666666666667,1.36363636363636,2,2,2,1,1,1,1,1,2,1,1,2,3,3,2,2,1,1,2,2,1,4,5,4,2,1,2,4,5,4,5,4,5,2,3.61538461538462,1,2,1,5,3,1, ,1, ,1, ,3,3,1, ,1, ,3,8,8,3,1, ,1, , , , , , , , , , ,3,3,2,3,2,3,3,5,0,3,3,2,4,3,3,3,4,4,4,2,3,4,3,4,5,5,5,5,1,2,4,1,1,2,1,4,2,2,4,1,1,2,2,3,4,3,2,2,2,5,4,2,2,1,4,3,4,4,5,2,1,3,2,2,3,1,2.15384615384615,2,2,3,1,2,1,2,5,1,2,2,3,3,2,35.5,35.4,2,35.45,1, ,1,1,-1.68144357878118,-1.71312125794118,Kassel
1995,2,3,1,3,2,2,2,2,3,3,2,2,2,2,3,1,1.38888888888889,0,4.11111111111111,1.66666666666667,55,1.33333333333333, ,2.27272727272727,1,1,1,1,1,4,1,1,1,1,1,1,1,1,2,2,1,3,1,1,1,2,1,1,1,1,1,1,1,1,1,2,1,2,4,1,1,10:06:46,2,2,1,4,4,5,4,5,5,4,2,4,4,4,4,4,2,2,3,4,18,3,2.09090909090909,4,3,2,4,2,1,1,2,1,1,2,1,2,1,2,1,1,3,1,3,1,3,4,4,3,4,2,3,3,3,4,2,3,3,3.15384615384615,1,2,2,1, ,4,4,4,4,4,4,4,4,1, ,2,8,1, , ,1,1, ,1, , , , , , , , , , ,4,3,4,3,2,2,3,7,2,2,3,2,4,1,1,1,1,4,2,2,2,5,4,5,4,3,2,4,2,1,3,2,1,1,2,2,3,4,3,2,3,4,1,2,4,3,2,2,2,3,2,2,2,3,3,3,4,4,4,2,5,3,3,3,1,3,2.46153846153846,2,3,3,3,2,2,3,2,2,3,3,4,2,2,35.5,36.2,2,35.85,1,3,1,1,-1.63085976081227,-1.88496376183373,Kassel
1994,2,1,2,1,2,2,2,1,2,2,2,1,2,2,3,1,4.33333333333333,2,4.33333333333333,3.66666666666667,54,2.22222222222222, ,1.72727272727273,1,5,5,3,5,7,5,4,6,5,2,5,3,3,3,5,5,5,2,2,2,5,1,2,1,1,1,1,3,2,2,3,1,3,4,1,5,8:45:51,1.8,2,6,4,4,5,5,5,5,3,2,5,5,5,6,6,4,3,3,6,16,3.5,3.63636363636364,5,4,4,4,4,2,4,4,3,2,4,4,4,2,4,4,3,4,3,5,1,3,4,4,2,4,3,4,2,3,4,2,2,2,3,2,2,2,1, ,4,4,5, ,2,2,7,5,2,1,2,7,1, , ,3,1, ,1, , , , , , , , , , ,3,4,4,4,3,3,3,7,3,2,2,2,5,4,4,3,4,2,2,1,3,5,4,4,4,5,4,4,3,4,4,5,2,2,3,4,2,4,5,1,4,2,2,4,5,3,3,2,2,3,4,4,2,2,3,4,4,4,3,2,4,5,5,4,4,3,2.69230769230769,2,3,3,3,3,2,3,3,3,2,3,4,2,3,35.5,36.6,2,36.05,1,1,1,1,1.05008259153966,-.96847040774012,Kassel
1990,1,2,1,2,3,2,1,1,2,1,1,2,2,5,3,1,3.27777777777778,0,4.55555555555556,3,56,1.88888888888889, ,1.54545454545455,1,4,3,2,4,4,4,3,3,4,1,4,6,2,2,2,5,4,2,1,1,3,4,2,1,1,1,1,1,3,1,1,1,4,4,1,3,10:53:17,2.6,2,10,4,5,5,4,5,5,4,3,5,5,4,8,6,3,5,3,3,22,5.66666666666667,3.09090909090909,4,4,3,4,3,2,3,3,3,2,3,3,5,3,4,2,1,3,3,3,1,4,5,3,3,4,5,4,3,5,4,4,5,3,4,2,2,1,3,3,4,4,4,2,7,4,4,4,1, ,2,4,1, , ,4,1, ,1, , , , , , , , , , ,5,5,6,6,6,6,6,8,1,3,4,3,5,3,3,3,3,3,2,2,3,4,3,4,4,4,4,5,3,4,5,3,1,2,1,4,2,2,3,1,2,4,2,2,4,3,2,2,3,3,3,4,3,2,3,4,4,5,5,2,3,4,4,4,2,2,2.92307692307692,4,3,4,2,2,2,3,2,3,2,5,5,3,3,35.4,35.9,2,35.65,1,0,1,1,.08899005013048,-1.31215541552522,Kassel
1987,1,2,1,2,1,1,1,1,2,1,1,2,2,2,3,3,1.66666666666667,0,4.22222222222222,1.66666666666667,53,2.77777777777778, ,1.27272727272727,1,1,1,2,1,4,2,2,3,1,1,2,1,1,2,2,2,1,1,2,4,4,2,2,2,2,2,2,2,3,2,3,1,7,6,2,2,9:24:08,2.4,2,2,4,5,5,4,5,5,3,2,5,4,4,2,4,2,2,2,2,20,6,2.27272727272727,4,2,4,2,3,1,1,1,2,1,4,2,1,1,3,1,1,2,2,2,1,4,5,3,4,1,4,5,4,5,5,4,3,4,3.92307692307692,1,2,2,1, ,4,4,5, ,8,8,4,3,2,1,2,8,1, , ,3,1, ,1, , , , , , , , , , ,7,5,6,5,7,6,6,7,2,3,2,3,5,4,4,3,5,3,1,5,3,4,2,4,4,2,3,4,5,3,4,4,1,1,2,5,3,2,1,2,2,1,2,2,4,4,3,1,3,4,3,4,2,1,5,3,2,2,4,3,1,2,4,2,4,2,2.69230769230769,3,4,3,2,3,2,3,3,4,2,3,4,1,2,35.4,36.4,2,35.9,1,12,1,1,-1.37794067096775,-.395662061431615,Kassel
1995,3,4,2,3,2,3,3,4,4,3,3,2,4,2,4,3,3.83333333333333,0,3.22222222222222,3.88888888888889,71,3.16666666666667, ,3.09090909090909,1,5,3,4,5,4,4,5,5,3,2,2,5,4,4,5,2,5,2,5,4,5,2,2,4,3,2,2,2,2,2,2,2,7,7,2,2,10:37:01,3,2,3,4,4,4,3,4,2,3,3,3,3,5,5,3,4,3,6,6,27,3.5,3.54545454545455,4,3,4,4,4,2,4,4,4,2,4,4,4,4,4,4,3,4,4,4,1,2,4,3,2,3,2,3,2,3,3,2,2,4,2.69230769230769,2,2,1,1, ,4,4,2,2,6,3,6,6,1, ,2,6,3,2,8,1,1, ,1, , , , , , , , , , ,3,3,3,4,4,4,4,8,3,2,3,1,5,4,2,2,4,3,3,1,3,4,2,3,4,5,5,5,3,3,4,3,1,3,4,4,1,3,3,1,2,3,4,5,4,3,3,3,3,3,4,4,4,2,4,4,3,3,2,4,4,2,2,4,2,2,3.30769230769231,4,4,4,3,3,3,3,4,3,2,3,4,4,3,35,36.3,2,35.65,1,9,1,1,.594828229819525,.00530378098433749,Kassel
1994,2,2,2,2,1,2,2,2,1,1,2,2,2,1,2,5,2.44444444444444,0,4.11111111111111,3.22222222222222,71,1.88888888888889, ,1.72727272727273,1,3,3,2,2,3,5,2,2,2,2,2,2,2,2,2,2,5,1,2,1,3,2,2,2,2,2,2,1,1,1,1,2,3,3,2,2,9:26:21,2.4,2,34,4,5,4,4,5,5,4,2,4,4,3,4,4,3,2,4,4,24,6,3.90909090909091,5,5,5,4,5,4,3,4,2,2,4,4,4,2,5,2,2,4,2,4,1,4,5,3,5,4,4,5,4,4,5,4,4,4,4.23076923076923,2,2,2,1, ,4,4,2,2,5,3,7,6,1, ,2,6,1, , ,1,1, ,2,Kickbox-Gruppe, , , , ,7, , , , ,5,6,7,6,7,5,6,7,3,1,3,2,4,4,3,2,4,4,4,1,2,4,3,4,4,3,4,4,3,2,4,4,2,2,1,3,2,4,3,2,4,4,4,2,4,2,4,2,3,3,4,2,3,1,4,4,5,4,3,2,4,4,5,4,2,3,2.38461538461538,2,3,4,3,2,2,2,2,2,2,3,5,1,3,34.7,36.6,2,35.65,1,4,1,1,-.669767219403087,-1.31215541552522,Kassel
1992,2,3,1,3,2,2,3,2,2,1,2,3,2,2,4,2,4.77777777777778,0,2.88888888888889,1.55555555555556,82,3.5,1,2.09090909090909,1,6,5,6,6,6,5,3,5,6,5,6,6,3,3,3,3,6,3,4,4,3,2,3,1,2,4,4,5,4,5,5,2,5,4,2,4,9:43:39,2.6,2,0,3,4,4,4,3,2,2,2,3,2,4,7,6,5,5,4,4,18,5.16666666666667,2.18181818181818,4,3,3,3,1,1,1,2,1,3,2,2,2,1,1,1,1,1,3,2,2,3,2,2,1,3,2,2,3,2,3,2,2,3,2.30769230769231,2,1,2,1, ,4,4,5, ,4,2,8,4,1, ,2,8,3,1,5,1,1, ,1, , , , , , , , , , ,4,6,6,5,5,5,5,7,2,2,2,3,3,2,2,2,4,4,4,3,4,5,4,4,3,5,5,4,3,3,4,3,2,2,3,2,3,5,5,2,3,4,5,2,4,3,3,4,2,3,2,3,4,2,4,4,3,5,3,3,3,2,2,2,1,4,3.23076923076923,3,3,4,3,3,4,3,4,4,3,3,4,3,2,37.13,36.99,2,37.06,1,2,1,1,1.4547531352909,.34898878876944,Kassel
1997,4,4,2,4,5,3,4,4,2,3,4,2,2,2,3,2,5.5,0,3.88888888888889,3,54,3.55555555555556, ,3.54545454545455,1,6,6,6,6,6,6,6,6,6,4,2,6,6,5,7,6,6,3,7,3,6,2,5,5,2,3,3,3,3,3,3,3,5,3,2,3,9:36:21,2.2,2,1,3,4,4,3,5,4,4,3,4,4,4,6,3,3,3,2,5,28,6,3.81818181818182,5,4,5,4,5,2,4,2,3,3,5,4,3,3,4,2,1,4,2,4,2,3,3,3,4,4,1,2,2,2,3,4,4,3,2.92307692307692,2,2,2,1, ,4,2,5, ,3,1,7,7,1, ,2,8,1, , ,6,1, ,2,Uni,Sport, , , ,7,4, , , ,7,6,7,5,6,5,6,6,3,3,2,2,4,2,2,2,2,4,4,1,3,4,2,3,5,5,5,4,3,3,4,3,2,2,3,3,4,5,2,2,3,2,3,4,4,4,2,2,3,3,4,5,4,2,4,4,5,5,4,3,2,3,3,4,3,4,3.15384615384615,3,4,4,3,2,3,2,4,4,3,4,3,2,3,37,36.8,2,36.9,1,1,1,1,2.11234276888666,.40626962340029,Kassel
1996,3,3,1,4,2,2,2,2,4,2,3,2,2,2,4,3,2.5,2,4.44444444444444,1.66666666666667,65,3.72222222222222,2,2.54545454545455,1,2,4,2,1,1,3,1,2,6,2,6,2,2,1,2,2,5,1,5,5,5,5,4,5,4,3,3,3,3,3,3,3,3,6,2,2,9:55:26,2.6,2,3,3,4,4,5,5,5,5,2,5,5,4,5,4,3,3,4,4,20,5.33333333333333,2.27272727272727,3,4,3,4,2,1,1,1,1,2,3,1,3,1,3,1,1,1,2,2,1,3,3,3,3,3,1,3,2,4,3,4,4,3,3,2,1,1,1, ,4,2,4,1,7,3,8,4,2,1,2,8,3,1,3,4,1, ,1, , , , , , , , , , ,6,5,6,5,5,5,5,9,2,2,4,3,5,5,5,3,5,5,4,1,2,4,3,5,4,5,4,4,2,3,4,3,2,2,2,3,3,5,3,2,2,3,1,4,4,5,1,2,4,4,4,4,4,1,4,4,3,2,4,1,5,3,2,3,3,2,2.84615384615385,3,3,4,2,2,3,3,3,3,2,4,4,2,3,36.82,36.51,2,36.665,1,-2,1,1,-.619183401434182,.578112127292842,Kassel
1994,4,4,1,4,2,2,4,4,2,3,2,2,2,2,3,2,4.61111111111111,0,3.11111111111111,3,60,2.55555555555556, ,2.90909090909091,1,5,6,6,7,7,5,2,5,6,5,2,6,2,5,4,6,3,1,3,2,5,2,2,2,1,3,3,3,2,2,3,1,4,1,3,4,9:37:36,2.2,2,0,3,4,3,4,4,3,2,3,3,2,5,6,6,5,5,2,2,16,2.83333333333333,2.63636363636364,4,3,4,4,2,2,2,2,2,2,2,2,4,2,4,4,2,3,2,4,1,4,4,3,2,3,4,4,3,3,4,3,3,4,3.38461538461538,2,2,2,1, ,4,2,4,1,2,2,4,3,2,1,2,8,3,1,3,1,2,1,1, , , , , , , , , , ,4,3,3,3,2,2,2,10,2,2,4,2,5,3,2,2,4,4,3,1,3,4,3,4,3,5,4,4,3,2,3,3,2,2,2,2,2,4,4,1,3,3,2,4,2,3,2,1,3,3,4,2,2,3,3,4,4,4,3,2,3,4,2,3,4,2,3.07692307692308,4,3,4,3,3,3,3,3,3,3,3,4,2,3,36.8,37,2,36.9,1,-2,1,1,1.30300168138419,-.624785399955017,Kassel
1991,3,3,1,4,2,3,3,3,4,2,2,2,2,2,4,3,3.33333333333333,0,4.66666666666667,2.55555555555556, ,3.72222222222222, ,2.72727272727273,1,4,3,4,3,4,4,2,3,5,3,3,4,5,2,3,2,4,2,3,2,3,4,4,4,4,5,4,2,2,5,5,3,5,4,3,5,11:09:54,2.6,2,0,3,5,5,5,5,4,3,5,5,5,3,3,2,2,2,3,2,31,4.33333333333333,2.18181818181818,3,3,2,3,2,2,1,2,2,2,2,3,4,2,4,2,2,2,2,2,2,2,3,5,2,4,3,4,2,4,4,1,4,4,3.23076923076923,1,2,2,1, ,4,4,5, ,5,2,5,5,1, ,2,4,3,8,8,3,1, ,1, , , , , , , , , , ,6,3,4,5,4,4,4,7,2,2,3,3,4,4,2,3,4,4,4,3,3,4,4,4,2,3,3,4,3,3,3,2,2,2,2,4,2,3,3,2,4,4,1,1,4,3,2,2,4,3,4,3,2,2,4,4,2,2,2,4,2,2,2,2,2,1,2.15384615384615,3,2,2,3,2,2,2,2,2,2,2,4,2,2,36.7,36.7,2,36.7,1, ,1,1,.139573868099385,.578112127292842,Kassel
1985,2,2,1,2,4,4,2,2,1,2,4,3,2,2,4,2,4.22222222222222,16,4.22222222222222,2.88888888888889,65,3.05555555555556,15,2.36363636363636,1,5,4,4,5,3,5,5,6,6,2,4,6,1,3,3,5,5,4,5,3,3,2,2,1,1,1,1,3,3,5,5,1,7,6,1,5,10:44:47,2.6,2,0,3,4,4,5,5,4,4,4,4,4,5,6,5,3,5,5,5,26,6.16666666666667,2.27272727272727,4,3,2,3,2,1,2,1,2,3,2,3,4,2,4,2,1,4,2,4,1,2,3,2,2,3,2,4,2,4,4,2,4,3,2.84615384615385,1,1,4,1, ,4,4,4,4,3,3,5,3,2,1,2,5,3,5,4,1,1, ,1, , , , , , , , , , ,7,6,6,6,6,6,6,9,2,4,4,4,4,1,4,5,1,4,4,5,1,4,4,4,3,4,4,3,3,3,4,2,2,2,4,1,4,5,3,4,2,3,1,2,3,3,4,2,3,5,1,3,2,3,4,4,3,4,2,2,1,2,2,2,4,1,2.92307692307692,3,3,4,3,3,3,2,2,3,3,4,4,2,3,36.7,36.6,2,36.65,1,5,1,1,.948914955601856,-.109257888277363,Kassel
1989,1,1,1,1,1,1,1,1,1,1,2,1,2,2,1,1,1.55555555555556,4,3.88888888888889,1.66666666666667,83,1.72222222222222, ,1.09090909090909,1,2,2,1,2,1,1,2,1,1,1,2,1,1,5,1,2,1,1,1,1,5,1,1,1,1,1,1,1,1,1,1,1,5,5,1,2,10:20:15,1.4,2,37,3,4,5,5,5,5,5,1,3,2,5,8,7,7,6,2,5,33,5,1.90909090909091,4,4,1,4,1,1,1,1,1,1,2,1,4,1,4,1,1,1,1,1,1,3,4,5,1,2,1,2,3,3,4,2,4,2,2.76923076923077,2,2,1,1, ,4,4,4,1,6,2,5,3,2,1,1, ,3,8,8,5,1, ,1, , , , , , , , , , ,6,5,5,5,5,4,5,8,2,2,4,3,3,3,2,1,3,5,4,1,5,5,3,2,4,5,5,5,5,4,5,5,1,1,1,1,4,5,2,4,2,4,3,1,4,4,1,1,4,4,5,1,3,1,4,4,4,4,5,1,2,5,5,3,1,5,3.15384615384615,3,3,4,2,2,2,3,4,3,4,5,5,2,4,36.7,36.9,2,36.8,1,5,1,1,-1.47910830690556,-1.48399791941777,Kassel
1995,3,2,1,3,4,2,3,2,4,2,3,2,2,2,1,2,1.77777777777778,0,4.44444444444444,3.11111111111111,76,2.11111111111111, ,2.63636363636364,1,3,2,1,2,2,2,1,1,2,1,2,2,1,2,2,2,3,1,1,1,2,2,2,1,2,3,3,2,2,1,1,1,7,4,1,2,9:46:41,1.8,2,1,3,4,5,4,4,5,5,3,5,5,3,4,5,2,4,3,4,17,6,2.09090909090909,3,1,4,3,1,1,2,2,1,1,4,4,3,2,3,3,2,4,3,4,1,1,2,5,3,5,1,2,1,4,3,2,3,1,2.53846153846154,2,2,1,1, ,4,4,4,2,6,2,6,3,1, ,2,7,3,1,3,1,1, ,1, , , , , , , , , , ,6,6,6,6,7,5,5,8,2,2,2,3,5,3,1,3,4,4,3,1,2,4,1,4,3,4,4,3,3,3,4,4,1,1,1,3,3,4,2,3,2,4,2,3,4,3,2,2,4,3,3,4,3,1,4,4,4,4,4,1,3,4,4,3,1,2,2.84615384615385,2,3,3,4,2,2,3,3,4,2,4,4,2,3,36.7,36.2,2,36.45,1,1,1,1,-1.27677303502994,-1.08303207700182,Kassel
1992,2,1,1,2,2,2,2,1,2,2,1,4,4,2,3,2,3.22222222222222,0,4.88888888888889,2.77777777777778,99,2.55555555555556, ,1.63636363636364,1,4,4,3,3,5,5,4,3,2,1,4,4,3,2,2,4,3,2,2,1,5,1,5,3,6,1,1,1,2,2,2,1,6,5,1,1,11:10:17,3,2,0,3,5,5,5,5,5,5,4,5,5,4,4,6,4,4,4,3,22,4.66666666666667,2.72727272727273,4,4,4,3,4,1,1,1,3,1,4,4,3,1,4,1,1,4,3,4,2,3,5,4,3,3,3,2,4,5,4,2,2,2,3.23076923076923,2,2,3,1, ,4,4,5, ,3,2,6,4,1, ,1, ,3,1,8,2,1, ,1, , , , , , , , , , ,4,5,5,4,6,4,5,6,1,2,2,1,4,3,3,4,3,1,2,2,3,4,2,4,4,4,3,3,3,3,3,3,2,2,2,4,3,2,2,2,4,2,1,1,4,4,2,2,2,2,3,4,3,2,3,4,4,4,3,2,4,3,2,4,2,2,2.53846153846154,3,3,2,2,3,2,3,3,2,2,3,3,2,3,36.5,36.6,2,36.55,1,-2,1,1,.0384062321615757,-.624785399955017,Kassel
1995,2,3,1,4,1,1,2,3,3,2,2,2,4,2,4,2,2.22222222222222,0,4.11111111111111,2.77777777777778,88,5.44444444444444, ,2.18181818181818,1,1,1,2,2,1,3,1,4,2,2,2,1,2,1,7,2,4,2,6,6,6,6,2,6,6,4,4,7,4,6,6,4,7,7,6,5,11:06:22,2.8,2,0,3,5,4,5,5,3,4,3,4,4,4,7,3,3,2,2,5, ,2.83333333333333,1.90909090909091,2,3,3,1,2,2,1,2,1,2,2,3,4,3,3,2,2,3,3,2,1,3,3,4,4,4,1,4,1,4,4,2,5,3,3.23076923076923,2,2,1,1, ,4,4,4,1,8,6,7,7,2,1,2,8,1, , ,1,1, ,2,Reitverein,Sport,-,-,-,4,2,0,0,0,2,3,3,3,3,3,3,9,3,3,3,2,5,2,3,1,2,3,1,1,1,4,4,4,4,3,3,3,4,3,3,4,4,2,4,4,3,5,5,1,2,4,3,2,5,3,3,3,3,4,4,2,2,3,4,4,2,2,1,4,1,3,4,3,5,3,3,3,3,3,3,2,2,4,3,3,3,4,4,3,3,36.5,36.5,2,36.5,1,0,1,1,-.872102491278705,2.35381800084921,Kassel
1996,3,2,1,2,2,1,3,2,3,2,3,2,1,2,3,2,4.16666666666667,0,4.44444444444444,3.11111111111111,76,4.11111111111111, ,2.18181818181818,1,4,4,5,5,5,5,3,4,5,4,3,4,3,3,5,4,5,4,4,4,5,4,4,3,5,4,4,3,4,4,4,4,4,6,4,4,11:02:04,2,2,6,3,5,5,5,5,3,4,3,5,5,5,6,4,2,3,3,5,18,5.5,2.90909090909091,4,4,2,3,3,2,3,4,3,2,2,2,5,4,4,2,1,3,3,4,2,3,4,4,3,3,4,4,3,5,4,3,4,3,3.61538461538462,2,2,2,1, ,4,4,5, ,8,2,8,5,2,1,2,1,1, , ,1,2,4,1, , , , , , , , , , ,3,6,6,6,7,5,5,8,2,3,3,3,3,2,2,3,3,4,4,2,3,4,4,3,3,5,5,3,3,3,4,3,3,3,3,3,2,3,3,2,1,1,2,3,3,3,3,2,3,3,3,3,3,2,4,4,4,3,3,3,3,3,4,3,2,2,2.61538461538462,3,3,3,2,2,2,3,2,3,3,3,5,2,3,36.4,36.2,2,36.3,1,1,1,1,.898331137632952,.979077969708795,Kassel
1994,2,2,2,2,3,2,3,2,2,2,2,2,2,2,2,2,4.27777777777778,0,3.66666666666667,2.44444444444444,53,2.83333333333333,3,2.18181818181818,1,5,4,5,5,5,4,5,4,4,5,6,5,3,4,3,4,2,4,2,3,4,3,3,2,2,2,2,4,3,3,4,2,4,3,2,3,9:39:53,2,2,3,3,4,4,4,4,5,3,2,3,4,5,7,6,6,5,5,5,17,5.66666666666667,2.90909090909091,5,4,3,2,4,1,3,3,2,1,4,2,4,1,4,1,2,1,3,4,1,4,3,4,2,3,3,1,2,3,3,3,3,3,2.84615384615385,2,1,4,1, ,4,4,4,1,5,3,7,4,2,1,2,8,1, , ,1,2,2,1, , , , , , , , , , ,6,5,6,5,6,6,6,9,2,3,2,2,4,3,3,3,3,2,2,1,4,4,3,4,4,4,4,4,4,3,3,4,2,2,3,4,2,2,2,2,4,4,4,4,4,4,3,4,2,3,4,2,3,2,5,5,3,3,4,3,5,3,5,3,1,5,3.61538461538462,4,4,3,3,3,4,3,4,3,4,4,3,4,4,36.4,36.7,2,36.55,1,12,1,1,.99949877357076,-.338381226800765,Kassel
1988,2,2,1,2,3,1,4,2,2,3,2,2,2,1,2,1,3.61111111111111,0,1.11111111111111,2,53,3.05555555555556, ,2.18181818181818,1,5,4,3,3,3,6,2,5,5,2,5,2,2,2,5,4,5,2,2,2,6,2,2,2,2,2,3,2,3,5,5,2,6,4,2,3,10:51:12,1.6,2,0,3,1,1,1,1,2,1,1,1,1,5,6,6,3,5,5,5,11,5.33333333333333,2.45454545454545,4,3,3,4,2,1,2,3,2,1,2,2,2,1,2,2,1,3,2,3,1,2,3,4,2,3,2,3,1,4,3,3,4,2,2.76923076923077,1,2,2,1, ,4,1,4,1,2,1,5,4,1, ,2,8,1, , ,2,1, ,2,Meditationsgruppe, , , , ,1, , , , ,6,5,5,5,6,5,5,7,1,4,3,2,5,3,4,3,4,4,4,1,3,5,4,5,4,5,3,4,1,2,3,1,1,4,1,3,1,3,4,1,2,5,3,4,4,1,4,2,2,2,4,3,4,2,3,4,3,4,5,2,5,3,4,4,1,3,3,3,3,3,2,3,3,3,4,3,3,3,4,2,4,36.3,36.5,2,36.4,1,12,1,1,.392492957943907,-.109257888277363,Kassel
1955,2,2,1,2,1,2,2,2,1,1,2,2,1,1,4,2,3.5,0,3.44444444444444,3.66666666666667,89,4.44444444444444, ,1.63636363636364,1,6,4,2,4,5,4,4,3,2,2,6,5,6,2,2,2,3,1,6,5,6,2,5,2,2,2,2,3,6,5,7,4,7,7,3,6,10:41:03,2,2,0,3,4,5,5,4,2,2,3,4,2,5,5,5,2,3,2,4,26,5.83333333333333,3.90909090909091,5,5,5,5,4,3,4,3,2,2,5,4,4,4,4,3,4,4,2,4,1,4,5,5,2,4,3,5,2,2,4,4,2,5,3.61538461538462,1,2,4,4,3,2,2,1, ,8,4,3,3,1, ,1, ,3,4,8,1,1, ,1, , , , , , , , , , ,7,5,6,6,6,5,5,7,1,5,2,1,4,4,4,4,4,3,2,1,2,4,4,3,3,4,4,2,3,2,2,3,2,3,3,3,1,1,4,2,4,2,4,4,4,4,3,2,2,3,4,1,2,1,4,2,4,4,2,4,2,2,2,3,1,1,2,1,3,2,2,2,2,2,2,2,2,3,4,2,1,36.3,36.3,2,36.3,1,1,1,1,.291325322006098,1.3227629774939,Kassel
1966,2,2,1,2,2,2,2,2,2,2,2,3,2,2,4,2,3.22222222222222,0,4.33333333333333,1, ,3, ,1.90909090909091,1,2,2,2,4,5,5,1,4,6,2,2,5,4,4,4,2,2,2,2,2,3,3,4,3,4,2,2,3,4,2,2,3,6,5,2,2,10:31:47,2.6,2,0,3,5,5,4,5,4,4,4,4,4,4,6,5,6,3,2,4,23,4.16666666666667,1,1,1,1,1,1,1,1,1,1,1,1,1,1,1,1,1,1,1,1,1,1,2,3,3,3,4,2,2,3,2,4,4,2,3,2.84615384615385,2,2,1,3,3,4,2,4,4,4,2,4,3,2,3,1, ,1, , ,3,2,2,1, , , , , , , , , , ,4,5,5,5,3,3,2,9,1,3,5,3,4,4,3,3,2,4,4,1,4,4,2,4,4,5,4,4,2,4,4,2,2,4,2,2,3,5,2,2,2,5,1,1,4,2,2,2,2,2,4,2,3,4,3,3,4,4,2,2,1,4,4,3,2,1,3.30769230769231,4,4,4,3,3,2,3,4,3,3,4,4,2,4,36.3,36.96,2,36.63,1, ,1,1,.0384062321615757,-.166538722908214,Kassel
1995,4,4,2,4,3,3,4,4,2,3,2,2,2,3,4,2,3.72222222222222,0,3.55555555555556,3.77777777777778,49,3.5, ,3.18181818181818,1,5,3,4,5,4,3,4,5,4,2,4,3,5,4,3,3,5,1,4,3,6,3,4,3,3,3,3,2,3,3,3,3,6,6,2,3,10:08:52,2.6,2,6,3,4,4,3,4,4,4,3,3,3,4,5,3,3,4,5,4,25,3.5,3.90909090909091,4,4,4,4,4,3,3,4,5,4,4,4,4,3,4,5,3,2,5,4,1,2,4,3,2,4,2,3,3,3,4,2,3,3,2.92307692307692,2,2,1,1, ,4,4,2,2,6,3,6,6,1, ,2,8,3,2,6,1,1, ,1, , , , , , , , , , ,4,4,4,3,3,3,4,8,3,2,3,2,4,4,3,3,4,3,3,1,2,3,3,3,4,4,3,4,2,3,4,2,2,3,2,3,2,4,4,2,2,3,4,4,4,4,3,3,2,3,4,4,2,2,2,4,2,2,2,3,4,2,2,3,2,1,3.61538461538462,5,4,5,3,2,3,3,4,3,3,5,4,2,5,36.3,36.6,2,36.45,1,15,1,1,.493660593881716,.34898878876944,Kassel
1995,1,2,1,2,2,1,2,3,2,2,3,1,2,1,2,1,2.38888888888889, ,3.44444444444444,3,99,2.22222222222222, ,1.90909090909091,1,4,1,2,3,5,2,4,3,3,3,2,2,1,1,2,2,2,1,1,1,5,1,2,1,3,2,2,2,1,2,3,2,3,4,3,2,9:47:52,1.4,2, ,3,4,4,3,4,4,3,2,4,3,5,4,5,4,4,2,2,13,4.5,2.72727272727273,2,5,2,5,2,2,3,2,2,3,2,4,4,2,4,3,1,3,2,4,1,3,2,4,2,4,3,3,4,4,4,2,5,2,3.23076923076923,2,2,1,1, ,4,1,4,1,8,2,5,2,1, ,2,8,1, , ,1,1, ,2,Fachschaftsrat Psychologie,-,-,-,-,5, , , , ,5,4,5,5,4,4,4,7,2,1,2,1,4,3,2,2,5,3,2,1,2,4,4,4,3,3,3,5,2,2,5,3,1,3,2,4,1,3,4,1,4,3,4,3,4,4,2,2,2,2,4,3,2,4,3,5,3,2,3,3,4,3,4,3,2,4,2.30769230769231,3,3,3,2,2,1,2,3,2,2,3,4,2,2,36.29,36.28,2,36.285,1,3,1,1,-.720351037371991,-.96847040774012,Kassel
1990,2,2,1,2,2,2,3,2,3,2,1,2,2,2,1,1,2.38888888888889,0,4.22222222222222,2.44444444444444,77,2.33333333333333,18,2,1,2,2,1,2,3,5,3,2,2,2,6,1,2,2,5,1,1,1,2,1,5,1,2,1,1,2,2,1,2,1,5,2,5,4,2,3,10:57:08,1.6,2,3,3,4,4,3,5,4,5,4,5,4,5,8,6,4,2,3,6,15,3.5,1.27272727272727,2,2,1,2,1,1,1,1,1,1,1,4,4,2,2,2,2,1,3,2,2,2,4,3,3,4,4,4,3,4,5,4,4,4,3.69230769230769,2,1,4,1, ,4,1,4,1,4,2,8,5,1, ,2,8,1, , ,1,1, ,2,Fachschaft an der Universität, , , , ,4, , , , ,5,4,3,2,4,3,5,7,3,2,3,2,5,3,2,2,3,4,2,4,4,4,3,3,4,5,5,3,2,3,4,3,2,3,3,4,3,4,4,2,4,4,2,2,4,3,3,2,2,2,3,1,3,2,4,4,3,4,3,1,1,2,3,3,2,4,2.61538461538462,3,3,4,2,2,2,2,2,3,3,3,4,3,2,36.26,36.59,2,36.425,1,5,1,1,-.720351037371991,-.853908738478419,Kassel
1997,2,2,1,2,2,2,2,2,1,2,2,2,1,2,2,2,2.16666666666667,0,3.88888888888889,2.22222222222222,77,3.27777777777778, ,1.81818181818182,1,2,2,2,2,2,3,2,2,4,2,2,2,2,2,2,2,2,2,2,2,6,2,6,2,2,2,6,2,2,3,4,2,6,6,2,2,10:49:06,1.8,2,0,3,4,4,4,4,4,4,3,4,4,5,7,5,6,3,4,4,19,4.66666666666667,2,2,2,2,2,2,2,2,2,2,2,2,3,2,2,3,2,2,2,2,2,2,4,5,4,3,3,4,4,4,4,4,5,4,4,4,2,2,2,1, ,4,4,5, ,8,3,8,8,1, ,2,8,1, , ,1,2,2,1, , , , , , , , , , ,5,5,5,5,4,4,4,7,3,3,3,3,4,2,3,3,3,3,2,3,2,5,2,2,5,5,4,4,3,3,4,4,2,2,2,4,2,3,3,2,2,2,2,2,3,3,2,2,2,2,4,3,2,2,5,4,4,5,4,1,3,5,2,3,3,3,2.76923076923077,2,3,3,3,3,3,3,3,3,2,3,3,2,3,36.2,36.2,2,36.2,1,5,1,1,-.922686309247609,.119865450246038,Kassel
1992,3,2,5,2,3,4,3,4,1,3,2,1,1,2,2,1,4,0,3.88888888888889,2.66666666666667,82,3.44444444444444, ,2.90909090909091,1,5,4,3,5,6,5,4,5,4,3,5,5,5,3,3,4,2,1,4,3,5,3,4,1,2,2,5,3,3,3,4,2,6,6,2,4,11:14:47,1.4,2,20,3,4,4,4,3,4,4,4,4,4,4,7,6,6,3,3,3,23,5.66666666666667,2.81818181818182,4,4,5,3,3,1,2,2,2,1,4,2,4,2,4,2,2,2,2,4,2,2,4,4,2,3,1,3,3,2,4,4,4,2,2.92307692307692,2,2,3,1, ,4,4,5, ,6,6,6,6,1, ,2,4,2,1,2,3,1, ,1, , , , , , , , , , ,7,5,5,6,6,5,6,7,2,2,4,1,3,4,2,2,4,4,2,1,3,5,4,3,4,5,3,4,2,4,4,2,1,3,2,2,1,4,4,1,2,2,3,3,4,3,2,2,4,4,4,2,3,2,4,4,5,4,4,5,5,4,2,3,4,2,3,4,3,4,3,3,3,3,3,2,3,3,3,2,3,36.1,36.1,2,36.1,1,1,1,1,.746579683726238,.29170795413859,Kassel
1996,3,4,2,2,2,3,4,2,2,2,2,4,3,1,3,2,4,0,4.11111111111111,2.22222222222222,62,2.33333333333333, ,2.54545454545455,1,6,4,3,6,4,6,2,5,2,6,6,2,2,5,6,3,2,2,3,2,5,2,2,2,2,1,2,1,2,1,2,2,3,6,1,3,10:12:42,2.6,2,12,3,4,5,4,4,5,4,2,5,4,5,6,6,4,3,5,6,27,5,2,4,2,2,4,2,1,1,1,1,2,2,1,2,2,2,2,1,4,3,3,2,3,3,4,3,3,3,4,3,4,3,3,4,4,3.38461538461538,2,2,2,1, ,4,4,5, ,5,1,6,5,1, ,2,8,1, , ,3,1, ,2,Gesellschaftsspiele,Pen'n'Paper, , , ,7,6, , , ,6,5,6,4,5,4,5,6,3,3,4,2,5,2,4,5,1,3,4,2,4,5,4,3,5,5,4,3,4,4,5,5,3,2,3,4,2,4,2,2,5,5,2,1,4,2,4,3,3,2,4,3,4,2,4,4,4,5,5,3,5,4,4,3,2,5,2.46153846153846,3,3,3,1,2,3,2,3,2,2,3,4,2,3,36.1,36.5,2,36.3,1,1,1,1,.746579683726238,-.853908738478419,Kassel
1985,1,2,1,2,2,2,2,1,1,2,1,2,2,2,2,1,3.05555555555556,0,3.22222222222222,2.77777777777778,71,3.27777777777778, ,1.54545454545455,1,3,5,2,2,5,4,2,2,7,4,7,2,1,1,1,1,1,5,2,2,6,3,3,3,1,2,3,2,4,4,2,3,7,6,3,3,10:09:28,1.8,2,0,3,4,2,4,4,2,1,3,5,4,4,5,6,3,4,4,4,21,2.33333333333333,2.45454545454545,3,2,1,3,2,1,4,3,3,1,4,2,4,4,4,2,1,3,1,4,2,4,3,5,5,4,3,2,3,3,4,5,4,4,3.76923076923077,2,2,2,1, ,4,2,4,1,6,3,6,4,1, ,2,8,1, , ,3,1, ,2,Tanzgruppe,Lerngruppe Uni,Uni Sportgruppe, , ,3,2,2, , ,2,2,4,2,2,2,1,7,2,3,2,2,4,3,2,2,3,4,3,1,2,4,2,3,4,4,4,3,2,3,3,1,2,5,3,1,2,4,3,2,3,4,2,4,3,3,3,2,1,3,2,2,2,2,2,4,2,1,5,4,4,4,4,3,2,2,2.23076923076923,1,3,4,3,2,2,2,2,2,1,2,4,3,2,36.1,36.4,2,36.25,1,1,1,1,-.113345221745138,.119865450246038,Kassel
1993,2,4,2,2,4,4,4,2,2,3,2,2,2,2,4,3,5,0,2.77777777777778,2.11111111111111,86,4.5, ,2.81818181818182,1,6,6,6,6,4,7,5,6,5,5,3,2,6,2,6,5,7,3,6,2,6,6,6,6,6,6,6,2,5,4,3,6,2,3,3,3,11:21:40,2.6,2,48,3,4,3,3,2,2,2,2,4,3,4,5,6,5,4,5,4,10,4.83333333333333,2.09090909090909,4,3,4,2,2,1,1,1,1,2,2,2,2,2,2,2,1,2,2,4,2,2,4,2,4,4,4,4,4,3,4,2,3,4,3.38461538461538,2,2,2,1, ,2,2,5, ,1, ,5,5,1, ,2,8,1, , ,2,1, ,1, , , , , , , , , , ,6,4,3,3,7,6,6,5,2,1,4,1,5,2,4,2,4,3,4,1,2,5,3,3,4,4,4,4,3,4,4,2,2,3,3,4,2,5,5,2,3,4,4,2,4,3,3,2,3,2,4,3,3,2,4,4,3,3,4,2,4,4,3,3,4,3,3.38461538461538,4,4,5,3,2,3,3,4,3,3,4,4,2,4,36,36.3,2,36.15,1,5,1,1,1.65708840716652,1.38004381212475,Kassel
1994,2,2,1,2,3,2,3,2,2,2,2,2,2,2,2,2,3.5,0,4.44444444444444,2.44444444444444,61,2.77777777777778, ,2.09090909090909,1,4,4,4,5,6,5,3,2,5,2,4,5,2,2,2,4,2,2,2,2,6,2,2,1,1,2,7,2,2,2,3,1,5,3,2,5,9:54:39,2,2,8,3,5,5,4,5,5,5,3,4,4,4,6,7,3,4,4,5,38,4.33333333333333,2.72727272727273,4,4,3,3,3,2,3,2,1,2,3,2,4,2,3,2,1,2,3,3,1,3,4,4,3,3,3,2,3,4,4,2,4,3,3.23076923076923,2,2,2,1, ,4,4,4,1,7,4,7,5,2,3,2,6,3,1,5,2,1, ,2,Showtanzgruppe,Kirmesgesellschaft, , , ,10,5, , , ,4,3,5,4,5,5,5,9,3,2,3,1,5,4,3,3,4,4,3,1,3,4,3,3,4,5,5,4,4,4,4,4,2,2,2,4,1,3,4,1,2,4,2,2,4,3,1,3,3,2,2,4,3,1,4,4,4,5,5,2,4,4,4,4,2,2,2.76923076923077,3,3,3,3,2,2,3,3,2,4,4,4,2,2,36,37,2,36.5,1,10,1,1,.291325322006098,-.395662061431615,Kassel
1996,4,5,3,4,4,3,4,4,4,4,2,3,3,2,4,2,4.05555555555556,0,4,3.22222222222222,91,4, ,3.72727272727273,1,6,5,5,6,5,4,3,5,5,4,3,2,3,2,2,5,6,2,4,4,6,2,4,2,2,3,4,6,3,5,5,2,6,6,3,5,9:42:53,2.8,2,3,3,4,4,4,4,4,4,4,4,4,2,5,5,3,2,3,4,15,5.16666666666667,2.63636363636364,4,4,2,3,2,2,2,2,2,3,3,4,4,2,4,4,2,3,3,3,2,1,3,4,2,3,1,2,2,2,3,2,4,2,2.38461538461538,2,2,2,1, ,4,4,5, ,4,1,8,6,1, ,2,6,1, , ,3,1, ,1, , , , , , , , , , ,6,5,5,4,6,5,5,6,3,2,3,3,4,4,2,2,3,3,4,3,2,5,4,3,4,4,4,3,2,3,4,3,2,2,3,3,2,4,4,2,2,3,3,3,4,2,3,1,2,2,3,2,2,2,4,4,4,4,4,3,4,3,3,4,2,4,3,4,3,4,2,2,3,3,4,3,3,3,4,2,3,36,36.2,2,36.1,1,0,1,1,.797163501695143,.864516300447094,Kassel
1994,3,2,3,2,3,2,3,2,1,3,2,2,2,2,3,2,3.11111111111111,0,4.11111111111111,3.11111111111111,71,2.33333333333333, ,2.36363636363636,1,5,3,2,4,4,5,4,3,2,2,2,2,2,2,3,5,4,2,2,2,4,2,2,2,2,2,1,3,2,2,3,2,3,4,1,3,9:32:24,2.2,2,5,3,4,5,4,5,5,4,2,4,4,5,7,6,5,6,7,7,15,5.5,2.18181818181818,2,3,3,2,2,1,2,3,1,2,3,3,4,2,3,4,2,2,4,4,1,2,4,3,3,4,1,3,2,3,4,3,4,3,3,2,2,2,1, ,4,2,4,1,3,2,6,4,1, ,2,8,1, , ,5,1, ,1, , , , , , , , , , ,6,6,6,6,5,4,5,7,3,2,4,3,4,3,2,3,4,2,2,1,3,4,4,3,4,4,4,5,4,3,4,4,2,2,2,2,4,4,3,3,1,3,3,2,3,2,3,3,2,3,4,3,2,3,4,4,4,4,3,2,4,4,3,4,4,4,2.76923076923077,4,2,4,2,2,3,2,4,2,3,3,4,2,3,35.9,36.3,2,36.1,1,1,1,1,-.0627614037762333,-.853908738478419,Kassel
1990,4,4,4,4,4,3,4,2,4,4,4,2,2,2,4,2,4.33333333333333,0,4,3.44444444444444,82,3.33333333333333, ,3.72727272727273,1,5,5,5,5,5,5,5,4,5,5,6,3,5,4,2,3,3,3,5,2,6,2,3,2,3,3,3,2,2,3,3,5,6,3,4,3,10:12:15,2.4,2,0,3,4,3,4,4,4,4,4,4,5,5,6,6,6,5,2,2,14,5.33333333333333,3.18181818181818,4,4,4,5,4,2,2,2,2,3,3,4,4,2,4,3,2,4,4,4,1,4,3,2,2,4,3,2,2,4,4,4,4,2,3.07692307692308,1,2,2,1, ,2,2,4,1,4,2,3,3,1, ,2,3,1, , ,1,1, ,2,Spielegruppe, , , , ,4, , , , ,6,5,5,5,6,5,5,7,1,1,4,3,4,4,2,2,4,4,4,1,4,4,4,5,3,5,3,4,3,4,4,4,4,4,4,3,3,5,2,1,1,2,2,2,5,3,4,2,4,2,5,2,4,2,4,4,4,4,4,4,3,4,3,4,2,3,2.92307692307692,3,4,3,4,2,3,2,2,3,3,5,4,2,2,35.76,36.48,2,36.12,1,1,1,1,1.05008259153966,.177146284876889,Kassel
1995,1,2,2,2,2,2,2,2,2,2,2,2,1,2,2,1,3.94444444444444,0,3.55555555555556,1.44444444444444,71,4, ,1.90909090909091,1,4,4,4,4,4,4,4,4,4,4,4,4,4,4,3,4,4,4,4,4,4,4,4,4,4,4,4,4,4,4,4,4,4,4,4,4,9:39:29,1.6,2,0,3,4,4,4,5,4,2,2,4,3,5,6,5,4,3,2,4,26,4.5,2.27272727272727,4,3,3,4,3,1,1,1,2,1,2,1,1,1,2,2,1,1,1,3,2,3,4,5,2,3,4,4,2,4,3,3,4,3,3.38461538461538,1,2,2,1, ,4,4,4,4,7,5,7,7,2,1,2,8,1, , ,4,1, ,1, , , , , , , , , , ,4,5,5,5,4,4,3,8,3,3,2,2,4,3,4,3,2,3,2,3,2,4,2,3,3,3,3,4,3,4,4,3,2,3,2,3,2,3,3,2,2,2,2,2,4,2,3,3,3,2,4,3,2,2,4,2,2,3,2,3,2,2,2,2,3,2,2.69230769230769,4,2,3,3,2,2,3,3,3,3,3,4,2,2,35.7,35.5,2,35.6,1,1,1,1,.695995865757334,.864516300447094,Kassel
1993,2,2,3,2,4,2,2,2,2,2,3,2,2,2,2,2,4.55555555555556,0,3,2.55555555555556,83,2.88888888888889, ,2.36363636363636,1,6,6,6,6,5,5,6,5,6,1,2,4,4,4,6,3,5,2,4,2,4,2,6,2,2,2,2,2,2,3,2,2,6,4,2,3,10:35:34,2,2,1,3,4,4,4,4,3,2,2,2,2,5,7,7,5,4,3,6,13,5.83333333333333,2.54545454545455,4,3,2,4,3,1,2,2,2,2,3,2,4,2,3,1,1,4,2,4,1,3,4,4,2,3,2,2,2,2,3,2,3,2,2.61538461538462,2,2,1,1, ,4,2,4,1,7,2,7,6,1, ,2,8,1, , ,1,1, ,1, , , , , , , , , , ,6,6,6,6,6,5,5,7,3,4,4,4,4,2,2,4,2,4,4,3,4,4,3,3,4,5,5,5,3,3,5,3,2,3,2,2,4,4,3,4,3,2,2,2,5,4,3,2,3,2,4,2,4,4,4,4,4,4,3,2,4,4,3,3,2,4,3.38461538461538,4,3,4,3,3,3,3,4,3,3,4,4,3,4,35.6,36.4,2,36,1,0,1,1,1.25241786341528,-.281100392169915,Kassel
1990,2,3,4,2,2,4,4,4,3,2,3,1,2,2,2,2,4.22222222222222,0,3.77777777777778,3,68,2.16666666666667,10,3,1,6,4,4,5,4,5,3,5,6,2,6,4,4,2,3,6,5,2,1,2,6,1,1,1,1,1,1,2,2,3,3,1,4,3,2,4,10:33:15,1.8,2,0,3,4,4,4,4,4,3,3,4,4,5,6,5,3,2,2,5,34,4.83333333333333,2.63636363636364,4,4,2,3,3,2,3,2,2,1,3,3,4,2,4,2,3,4,1,4,2,2,3,2,2,3,1,2,2,4,4,2,2,2,2.38461538461538,1,1,2,1, ,4,4,5, ,6,4,7,4,2,1,2,8,3,8,8,4,1, ,1, , , , , , , , , , ,5,5,5,6,4,4,4,8,2,4,4,2,4,4,2,3,3,4,3,2,4,5,4,3,4,4,4,4,3,3,4,2,1,3,3,4,2,3,4,2,2,2,3,1,4,2,4,3,2,3,4,2,3,2,3,2,3,4,3,1,2,4,3,2,3,2,2.61538461538462,3,3,3,2,2,3,2,3,3,3,2,4,2,3,35.5,36.1,2,35.8,1,7,1,1,.948914955601856,-1.02575124237097,Kassel
1991,2,1,2,1,3,3,2,2,1,3,3,1,2,2,2,1,4.16666666666667,10,4.33333333333333,2.66666666666667,53,2.61111111111111,10,2.09090909090909,1,5,2,6,3,7,4,5,5,5,4,3,4,1,2,6,5,4,4,2,1,7,2,2,1,3,3,2,1,2,1,2,1,6,6,2,3,9:45:47,1.6,2,92,3,4,4,4,5,5,3,4,5,5,4,5,4,4,2,2,3,26,6,1.81818181818182,3,3,3,2,2,1,1,1,1,1,2,4,3,2,2,4,2,1,3,3,1,2,1,1,1,2,1,3,3,4,3,1,4,2,2.15384615384615,1,1,2,1, ,4,4,5, ,4,1,8,8,1, ,2,6,3,1,8,3,1, ,1, , , , , , , , , , ,6,7,6,6,6,5,5,7,3,2,3,2,2,2,2,4,1,4,3,4,1,3,4,4,3,4,3,5,4,3,4,3,4,2,2,2,2,3,3,4,5,2,1,1,5,4,2,1,3,2,3,2,2,3,4,3,1,3,3,4,3,3,4,2,1,2,3.53846153846154,4,5,3,3,3,2,3,4,3,4,5,4,2,5,35.5,35.7,2,35.6,1,12,1,1,.898331137632952,-.567504565324167,Kassel
1987,2,1,1,2,1,2,2,1,1,2,3,2,1,1,1,1,3.27777777777778,0,4.33333333333333,1.77777777777778,62,2.27777777777778,2,1.63636363636364,1,5,5,5,6,4,6,5,2,2,1,6,1,1,1,5,1,2,1,1,2,6,2,1,1,1,1,1,1,2,1,2,1,7,7,3,1,9:29:31,1.2,2,0,3,5,5,4,5,5,4,4,4,3,4,7,7,4,6,6,8,14,4.66666666666667,2.45454545454545,4,4,4,4,2,1,1,1,1,1,4,1,4,1,2,2,1,1,2,2,1,2,5,5,4,3,2,2,4,4,4,4,3,3,3.46153846153846,2,1,1,2,2,4,4,4,1,3,2,5,3,1, ,2,6,1, , ,1,1, ,1, , , , , , , , , , ,6,5,5,5,4,3,3,8,2,1,2,1,5,5,2,1,5,1,2,1,3,5,2,3,4,5,5,5,4,3,4,3,1,1,1,3,1,3,4,1,2,4,3,3,4,2,1,1,2,2,3,4,4,1,5,3,5,5,3,1,5,5,1,4,4,1,2.61538461538462,2,4,3,2,2,2,3,3,2,2,4,5,2,3,35.5,36.6,2,36.05,1,7,1,1,.08899005013048,-.911189573109269,Kassel
1988,2,2,2,3,2,3,3,2,2,3,2,2,3,2,3,1,4,0,3.11111111111111,3.33333333333333,68,4,15,2.36363636363636,1,4,4,4,4,4,4,4,4,4,4,4,4,4,4,4,4,4,4,4,4,4,4,4,4,4,4,4,4,4,4,4,4,4,4,4,4,9:36:43,2.2,2,18,3,4,2,3,3,4,3,2,4,3,4,4,5,4,2,3,3,11,3,3.81818181818182,3,4,4,4,4,4,4,3,3,5,4,4,3,2,4,4,2,3,4,4,1,2,4,2,2,5,3,2,3,4,4,2,2,2,2.84615384615385,1,1,2,1, ,2,2,5, ,4,2,4,3,1, ,2,8,1, , ,3,1, ,1, , , , , , , , , , ,3,3,3,3,3,3,3,6,2,2,2,2,5,4,4,3,4,4,1,3,4,5,4,5,3,5,4,5,2,3,4,3,1,2,3,3,3,5,4,1,3,4,3,2,3,3,4,2,2,2,4,2,4,2,3,3,3,4,3,2,2,3,3,3,3,3,3,3,3,3,3,3,3,3,3,3,3,3,3,3,3,35.3,36.1,4,35.7,1,7,1,1,.746579683726238,.864516300447094,Kassel
1987,2,2,1,2,3,3,2,3,2,2,2,2,2,3,3,2,2.33333333333333,0,4.22222222222222,2.77777777777778,54,2.5,2,2.18181818181818,1,3,4,3,2,2,2,2,2,3,2,2,2,4,2,1,1,4,1,2,1,2,3,3,5,6,1,2,1,2,2,2,1,4,3,3,2,10:12:53,2.4,2,8,3,5,4,4,5,4,4,4,4,4,3,3,4,5,2,5,5,14,4.66666666666667,2.27272727272727,4,3,3,3,2,1,2,2,1,1,3,2,2,2,4,2,2,4,3,4,1,3,4,4,2,3,1,3,2,2,4,2,3,3,2.76923076923077,1,1,2,1, ,4,2,5, ,5,3,8,5,2,1,2,7,1, , ,2,1, ,1, , , , , , , , , , ,6,5,5,4,5,3,4,7,3,4,2,3,5,4,4,3,4,3,4,2,3,4,3,3,4,3,4,3,3,3,4,4,3,1,2,4,2,3,3,2,3,2,3,3,4,4,2,2,3,4,3,4,2,2,3,3,2,2,3,3,3,2,3,4,2,2,3,3,4,4,3,3,3,3,2,3,2,4,5,2,3,35.1,36.1,2,35.6,1,1,1,1,-.770934855340896,-.682066234585868,Kassel
1992,2,4,1,2,1,2,2,4,2,2,1,2,2,2,3,1,1.88888888888889,0,3.77777777777778,3.11111111111111,54,3.38888888888889,6,2.09090909090909,1,1,3,1,2,4,2,2,1,1,5,1,3,2,1,2,1,1,1,5,1,4,7,5,3,3,1,7,3,2,3,3,2,3,5,2,2,10:10:11,2,2, ,3,5,4,4,3,4,3,2,4,5,4,3,5,3,3,2,4,22,5,2.09090909090909,3,4,2,2,2,1,1,1,2,4,1,4,5,2,5,3,1,2,2,4,2,2,3,4,2,3,2,3,3,4,5,4,5,2,3.23076923076923,2,1,4,1, ,4,4,4,1,2,1,6,6,1, ,2,5,3,4,4,1,1, ,1, , , , , , , , , , ,6,6,5,5,5,3,3,8,3,5,3,1,5,3,3,2,5,3,2,1,3,4,4,4,3,5,4,5,3,3,5,4,1,4,1,4,1,2,3,4,4,3,3,3,4,3,2,2,4,4,3,4,5,2,4,4,4,3,5,4,5,4,5,4,1,4,2.30769230769231,3,3,3,2,2,1,2,3,2,2,3,4,2,2,35.1,36.6,2,35.85,1,1,1,1,-1.17560539909213,.234427119507739,Kassel
1996,2,4,1,3,2,2,4,2,3,3,1,2,3,2,3,2,3.11111111111111,0,2.77777777777778,1.88888888888889,53,3.16666666666667, ,2.45454545454545,1,3,2,2,2,2,5,4,5,3,5,4,2,3,2,3,3,4,2,4,3,3,4,4,2,3,2,6,3,3,3,3,2,6,2,2,2,10:52:15,2.4,2,6,3,4,3,4,4,2,1,1,3,3,3,5,3,4,2,3,4,14,4.83333333333333,2.27272727272727,3,3,4,4,2,1,1,2,1,2,2,2,3,1,2,2,1,1,2,3,2,2,2,4,2,3,2,2,1,3,2,2,3,3,2.38461538461538,1,2,3,1, ,4,4,2,1,5,4,4,3,1, ,2,5,1, , ,1,1, ,1, , , , , , , , , , ,5,5,5,5,5,4,4,7,2,4,4,2,4,2,2,4,4,2,3,2,2,4,4,4,3,4,3,4,2,4,4,3,2,3,2,3,2,3,2,3,4,2,2,4,3,3,2,2,2,3,3,4,3,5,4,5,4,5,4,2,4,3,2,2,3,2,3.30769230769231,4,3,4,3,2,3,3,4,4,3,3,5,4,3,35.08,37,2,36.04,1,12,1,1,-.0627614037762333,.00530378098433749,Kassel
1979,4,2,2,2,3,3,3,3,2,3,3,2,2,2,2,1,3.5,0,3.22222222222222,2.77777777777778,68,3.5, ,2.72727272727273,1,2,1,2,4,5,4,1,4,7,2,7,2,3,4,4,5,4,2,2,2,2,3,2,5,7,3,4,2,3,2,4,5,4,5,4,4,12:00:43,1.8,2,0,3,4,4,4,4,4,3,2,1,3,5,6,5,6,4,5,5,19,3.66666666666667,1.90909090909091,3,2,3,3,2,1,1,1,1,1,3,3,3,2,4,3,1,1,4,4,1,2,3,2,4,3,2,2,3,3,4,3,3,3,2.84615384615385,1,2,1,3,3,4,2,4,4,6,2,4,4,1, ,1, ,1, , ,3,1, ,1, , , , , , , , , , ,3,4,3,4,4,4,4,7,1,2,2,4,4,3,5,4,3,2,4,3,2,4,3,4,4,3,4,3,3,3,4,4,2,2,2,4,2,4,4,2,2,4,2,2,4,3,2,3,2,2,4,3,3,4,4,4,3,2,3,2,2,2,2,2,3,2,2.61538461538462,2,3,3,2,3,2,3,3,3,2,3,3,2,3,34.6,36,2,35.3,1,4,1,1,.291325322006098,.34898878876944,Kassel
1996,2,2,2,2,2,1,3,1,1,1,2,1,4,1,2,1,1.05555555555556,0,4.22222222222222,2,92,1.61111111111111, ,1.72727272727273,1,1,1,1,1,1,1,2,1,1,1,1,1,1,1,1,1,1,1,1,1,2,1,1,1,1,1,1,1,1,1,1,1,6,6,1,1,11:09:06,1.8,2,0,2,5,4,5,5,4,4,1,5,5,5,7,5,2,4,2,5,36,3,1.36363636363636,3,1,2,1,1,1,1,1,1,2,1,1,4,1,4,1,1,2,1,3,1,4,3,4,3,3,2,2,3,4,3,4,3,3,3.15384615384615,2,2,1,1, ,4,4,4,1,5,5,5,5,2,1,2,3,1, , ,2,2,8,2,Fachschaftsrat Psychologie Uni Kassel,Pfadfinder, , , ,10,2, , , ,3,2,3,3,4,3,3,9,3,4,2,3,4,3,2,2,4,3,1,1,3,5,2,3,4,5,4,3,2,3,4,3,2,2,3,4,2,4,3,1,2,4,2,2,3,2,2,4,2,2,4,4,4,2,4,4,3,3,5,4,2,4,4,3,2,3,2.46153846153846,3,3,3,2,2,2,2,3,2,3,3,3,2,2,37.2,36.5,2,36.85,1,-2,1,1,-1.9343626686257,-1.59855958867947,Kassel
1997,2,4,1,4,4,2,2,4,2,2,4,2,2,3,3,3,4,2,3.66666666666667,2.22222222222222, ,4.33333333333333, ,2.81818181818182,1,4,4,4,4,4,4,4,4,4,4,4,4,4,4,4,4,4,4,4,6,2,4,4,4,4,4,4,4,4,4,4,4,7,7,4,4,10:32:19,2.6,2,0,2,5,5,4,5,3,1,1,5,4,5,5,5,3,3,3,3,16,5.16666666666667,1.63636363636364,4,2,1,1,2,1,1,1,1,2,2,1,3,3,3,2,1,2,2,3,2,3,2,3,3,4,1,2,2,3,4,3,2,2,2.61538461538462,2,2,2,1, ,4,4,5, ,8,5,4,4,2,1,2,8,1, , ,1,1, ,1, , , , , , , , , , ,6,5,5,5,5,5,5,7,2,1,4,1,5,3,4,3,5,2,4,1,2,4,5,2,5,4,3,3,3,4,3,2,3,2,3,5,2,5,5,2,2,4,2,5,4,3,5,2,2,3,3,1,2,1,4,4,2,4,3,3,2,3,2,4,1,1,2.46153846153846,3,3,3,2,2,2,2,2,3,2,4,5,2,2,37.07,37.14,2,37.105,1, ,1,1,.746579683726238,1.2082013082322,Kassel
1994,2,2,1,2,3,2,4,3,1,3,4,1,1,3,3,1,5,1,3.88888888888889,3.22222222222222,75,2.83333333333333, ,2.45454545454545,1,7,7,6,5,7,7,5,3,6,6,1,4,5,5,2,7,2,5,1,2,4,3,2,1,3,3,3,2,3,2,3,1,5,6,4,3,9:39:57,1.8,2,12,2,4,4,4,5,4,4,2,4,4,5,4,4,4,4,5,1, ,3,4.09090909090909,4,5,4,5,5,4,4,4,3,2,5,4,5,2,4,4,1,4,1,4,1,2,5,3,4,2,3,4,4,4,5,1,5,4,3.53846153846154,2,2,2,1, ,4,4,4,2,2,4,6,8,2,1,2,8,1, , ,1,1, ,2,Sportverein,/,/,/,/,5,0,0,0,0,4,1,3,3,3,4,4,9,3,1,1,2,5,5,4,2,2,2,2,1,2,3,4,5,4,4,4,3,3,4,2,2,2,2,2,3,1,3,4,1,4,3,1,3,4,3,1,1,4,4,2,3,1,1,4,4,4,3,2,2,2,4,3,4,1,3,3.15384615384615,4,4,5,3,3,4,3,2,4,2,4,4,1,2,36.9,36.7,2,36.8,1,-3,1,1,1.65708840716652,-.338381226800765,Kassel
1981,2,4,1,3,4,2,2,3,2,2,2,2,3,2,3,2,4.55555555555556,0,3.66666666666667,3.33333333333333,61,4.11111111111111, ,2.45454545454545,1,5,5,6,6,6,5,2,5,5,6,2,3,5,2,6,5,5,3,3,2,6,2,5,3,4,5,6,3,3,3,4,3,6,6,5,5,11:11:28,2.4,2,35,2,4,4,4,4,3,4,3,4,3,4,5,4,3,4,3,4,19,4.16666666666667,3.36363636363636,4,4,3,4,3,2,4,4,4,2,3,3,4,2,4,4,2,4,3,4,1,3,3,3,3,4,2,2,3,2,5,3,4,4,3.15384615384615,2,2,1,2,2,4,4,4,4,4,1,8,4,2,1,2,8,1, , ,2,1, ,1, , , , , , , , , , ,6,4,5,4,3,3,3,9,2,1,4,2,4,4,2,2,4,3,3,1,2,4,4,4,4,3,3,3,2,4,3,3,3,3,4,3,1,3,4,2,2,4,4,3,4,3,4,2,2,2,4,2,3,2,2,4,4,3,3,2,4,3,4,4,2,5,2.76923076923077,3,3,4,3,2,3,2,3,3,2,3,4,2,3,36.8,36.7,2,36.75,1,10,1,1,1.25241786341528,.979077969708795,Kassel
1992,2,2,2,4,2,2,2,2,3,2,2,4,4,2,4,4,4,0,3.22222222222222,1.55555555555556,82,4, ,2.27272727272727,1,4,4,4,4,4,4,4,4,4,4,4,4,4,4,4,4,4,4,4,4,4,4,4,4,4,4,4,4,4,4,4,4,4,4,4,4,11:06:08,3.6,2,20,2,3,3,4,4,4,4,2,3,2,5,8,5,6,2,6,6,5,2.5,1,1,1,1,1,1,1,1,1,1,1,1,2,2,1,2,1,1,1,2,2,2,3,3,4,3,4,5,2,2,3,3,4,3,3,3.23076923076923,1,2,2,1, ,4,1,5, ,2,1,6,1,1, ,2,3,1, , ,1,1, ,1, , , , , , , , , , ,5,1,2,1,3,3,4,6,0,3,2,2,5,2,4,4,2,2,2,3,2,4,4,4,4,5,4,3,2,4,3,2,2,2,2,5,2,3,4,1,2,3,2,2,4,2,3,3,2,2,4,2,2,3,4,4,4,4,4,2,3,3,4,3,4,4,2.53846153846154,3,3,3,2,2,2,2,3,2,3,3,3,2,3,36.8,36.5,2,36.65,1,1,1,1,.746579683726238,.864516300447094,Kassel
1996,2,3,2,2,2,2,1,1,1,2,4,1,1,2,4,2,2.83333333333333,0,3.33333333333333,1.55555555555556,77,2.61111111111111,2,2,1,3,3,2,3,2,4,5,4,5,2,2,3,1,2,4,2,3,1,4,2,5,2,3,2,3,1,1,3,2,3,4,1,3,3,3,2,9:59:34,2,2,1,2,4,4,4,4,3,2,3,3,3,4,5,5,2,3,4,2,22,4,2.36363636363636,4,3,2,3,1,1,2,2,2,3,3,3,2,1,2,1,1,1,1,2,1,3,5,4,2,3,4,4,2,4,4,4,4,4,3.61538461538462,1,1,1,1, ,4,4,4,2,4,4,6,4,2,1,2,8,1, , ,1,1, ,2,Sportverein, , , , ,5, , , , ,3,4,4,5,5,3,3,8,2,3,3,4,4,3,2,3,3,4,3,2,3,4,2,4,3,4,3,4,2,2,2,1,1,3,3,2,3,4,4,2,1,2,2,1,4,2,4,3,2,3,4,2,2,2,4,3,2,4,4,2,3,1,4,4,1,1,2.53846153846154,2,3,4,2,3,2,2,3,2,2,3,3,3,2,36.62,36.71,2,36.665,1,5,1,1,-.315680493620756,-.567504565324167,Kassel
1983,1,2,2,2,2,2,2,1,2,2,2,2,1,2,2,2,2.55555555555556,0,4.33333333333333,2.66666666666667,80,2.61111111111111, ,1.81818181818182,1,4,3,2,2,2,2,2,2,2,2,6,5,1,2,5,2,1,1,5,2,2,2,3,2,2,2,6,2,2,2,3,2,3,3,2,2,10:55:28,1.8,2,1,2,5,4,4,5,4,4,4,5,4,5,6,5,4,4,3,3,24,4.16666666666667,1.81818181818182,2,3,2,3,2,1,1,1,1,2,2,3,4,3,4,2,2,1,1,4,1,3,5,3,2,3,2,3,3,4,4,2,5,3,3.23076923076923,1,2,1,1, ,4,4,4,1,2,1,7,4,2,1,1, ,2,1,8,3,1, ,1, , , , , , , , , , ,3,4,5,4,4,5,5,8,1,2,2,2,4,3,2,2,3,2,3,2,4,5,4,4,4,5,4,3,2,4,3,1,2,4,2,3,2,3,4,1,4,4,2,3,4,3,4,2,3,2,4,1,3,2,3,4,4,4,4,2,2,4,3,3,2,2,2.46153846153846,2,3,5,2,2,2,2,3,2,2,2,2,2,3,36.5,36.9,2,36.7,1,7,1,1,-.568599583465278,-.567504565324167,Kassel
1994,2,2,2,1,2,2,3,2,2,2,2,2,2,3,3,2,4.22222222222222,0,4.44444444444444,2.33333333333333,88,3.16666666666667, ,2,1,5,4,5,6,6,5,2,6,4,2,3,3,6,3,5,6,2,3,3,2,4,2,3,2,2,3,5,4,4,4,4,2,4,4,1,4,10:29:45,2.4,2,3,2,5,5,5,5,5,4,3,4,4,5,7,6,5,3,4,5,16,5.83333333333333,2.45454545454545,4,4,4,3,3,1,2,2,1,1,2,2,4,2,4,2,1,1,2,3,1,3,3,4,2,3,2,3,3,4,2,3,4,3,3,2,2,2,1, ,4,4,4,1,7,2,7,5,2,1,2,8,1, , ,1,2,1,1, , , , , , , , , , ,6,6,6,6,6,5,4,9,3,2,2,2,4,4,2,2,4,3,2,1,4,5,3,4,3,4,4,4,4,3,4,4,2,2,3,4,3,3,3,2,3,3,5,5,5,3,3,2,2,3,4,3,3,2,4,4,4,4,4,3,4,5,5,4,2,5,3.30769230769231,4,4,4,3,2,3,2,4,3,3,4,4,3,4,36.5,36.5,2,36.5,1,0,1,1,.948914955601856,.00530378098433749,Kassel
1976,3,4,3,3,4,4,4,4,2,3,4,2,2,2,3,2,2.44444444444444,0,3.77777777777778,1.44444444444444,73,3.22222222222222, ,3.45454545454545,1,2,2,2,4,2,2,2,2,2,2,6,2,4,2,2,2,2,2,2,2,4,2,2,4,2,2,6,2,6,2,2,2,6,6,2,4,11:02:02,2.2,2,15,2,4,4,3,4,4,4,3,4,4,5,6,5,3,3,3,3, ,5,1.45454545454545,3,1,2,1,1,1,1,1,1,2,2,1,2,1,2,1,1,1,1,3,1,3,3,4,2,3,3,2,2,3,3,3,3,3,2.84615384615385,2,2,1,3,2,4,4,4,1,3,2,4,3,2,1,2,3,3,1,5,2,2,3,2,Handel,0,0,0,0,2,0,0,0,0,5,5,5,5,5,5,5,12,1,3,4,4,3,2,3,3,3,4,3,3,4,4,4,4,4,4,4,4,2,3,3,3,2,4,3,2,3,4,3,3,3,4,2,2,4,2,4,3,2,2,2,2,2,2,4,4,2,2,4,2,2,3,4,3,3,4,3,3,2,4,3,4,3,3,3,3,3,3,3,2,3,36.4,36.6,2,36.5,1,-4,1,1,-.669767219403087,.0625846156151882,Kassel
1980,2,3,2,4,2,2,2,2,3,2,2,2,3,2,3,1,2.88888888888889,0,4.55555555555556,2.33333333333333, ,3.66666666666667,1,2.36363636363636,1,3,2,2,2,2,2,2,2,4,2,6,2,4,6,3,5,2,1,2,4,6,4,7,7,6,1,3,3,3,1,2,1,6,6,1,3,10:39:48,2.2,2,0,2,5,4,4,4,5,5,5,5,4,4,3,5,3,3,3,3,35,4.66666666666667,1.54545454545455,1,3,1,2,1,2,1,2,1,2,1,3,4,2,4,1,1,2,2,2,1,2,4,3,2,3,2,3,3,3,3,3,4,3,2.92307692307692,1,1,5,3,3,4,4,2,1,4,4,3,3,2,1,2,2,3,5,8,5,1, ,1, , , , , , , , , , ,5,5,5,5,4,4,4,10,2,3,3,2,5,2,2,2,2,4,3,3,3,4,3,4,4,3,3,3,2,3,3,3,2,3,2,3,2,3,2,2,3,4,3,2,2,4,2,2,3,3,1,3,3,3,3,4,3,3,3,3,2,3,2,3,4,2,2.92307692307692,3,3,4,2,3,3,3,3,3,3,3,4,2,3,36.4,36.4,2,36.4,1, ,1,1,-.265096675651851,.520831292661991,Kassel
1996,2,1,1,2,2,2,2,2,1,1,4,2,2,2,1,4,2.38888888888889,0,3.66666666666667,2.44444444444444, ,3.27777777777778, ,1.81818181818182,1,2,4,1,1,2,5,1,2,3,2,7,1,1,1,4,1,4,1,2,2,4,5,6,4,5,3,2,3,3,1,4,1,3,4,5,2,10:35:34,2.2,2,0,2,4,4,4,4,4,3,2,4,4,4,8,7,5,5,5,5,16,3.5,2,3,3,3,4,1,1,1,1,1,1,3,3,3,2,3,3,2,2,2,2,1,3,5,5,2,4,2,4,2,4,5,5,4,3,3.69230769230769,2,2,2,1, ,4,4,4,1,3,2,6,6,2,1,2,8,1, , ,1,1, ,1, , , , , , , , , , ,4,4,4,3,3,3,2,8,3,3,3,2,5,2,2,2,2,3,3,1,2,5,3,5,4,4,4,4,4,3,3,3,1,1,1,5,2,5,3,5,3,3,3,3,2,5,1,3,2,5,4,1,1,1,4,4,5,5,5,5,3,5,4,3,5,1,2.69230769230769,3,3,4,3,2,4,2,2,3,2,2,4,2,3,36.3,36.7,2,36.5,1, ,1,1,-.720351037371991,.119865450246038,Kassel
1995,3,3,4,2,3,4,4,4,2,4,4,1,2,2,2,1,4.94444444444444,0,2.11111111111111,3.33333333333333,78,5.11111111111111, ,3.36363636363636,1,5,6,4,6,5,4,4,7,6,4,6,4,4,4,7,4,5,4,3,6,2,6,6,5,7,7,7,3,6,4,4,7,4,3,6,6,10:15:28,1.6,2, ,2,3,2,2,2,1,3,1,2,3,5,8,6,5,4,5,3,23,6.33333333333333,3.09090909090909,4,4,2,4,4,2,4,2,1,3,4,4,4,3,4,3,4,2,2,4,2,2,3,5,1,1,1,1,1,2,2,1,4,2,2,2,2,2,1, ,4,4,5, ,1, ,8,8,2,4,2,8,1, , ,3,2,3,1, , , , , , , , , , ,7,7,7,5,7,5,6,7,3,1,3,1,5,5,3,2,4,2,2,1,2,5,1,2,5,5,5,4,1,4,3,1,2,4,2,4,1,3,4,1,3,4,4,4,4,3,1,2,4,3,3,5,3,1,4,4,4,4,4,2,4,5,3,4,3,5,3.84615384615385,5,3,5,3,4,4,4,4,3,4,4,4,3,4,36.3,36.7,2,36.5,1,8,1,1,1.60650458919761,2.0101329930641,Kassel
1992,2,2,2,2,2,2,2,2,2,2,2,4,4,2,2,2,3.88888888888889,0,3.11111111111111,1.22222222222222,51,4, ,2,1,4,4,4,4,4,4,4,4,4,4,4,4,4,4,4,4,2,4,4,4,4,4,4,4,4,4,4,4,4,4,4,4,4,4,4,4,10:11:57,2.8,1,0,2,4,4,4,4,2,2,2,4,2,4,5,4,5,2,5,5,5,2.16666666666667,1.18181818181818,2,2,1,1,1,1,1,1,1,1,1,1,2,1,1,1,1,1,1,2,2,3,4,4,3,4,4,3,3,3,4,3,3,3,3.38461538461538,1,2,2,1, ,4,1,5, ,2,1,4,1,1, ,2,4,1, , ,1,1, ,1, , , , , , , , , , ,4,1,2,2,2,2,3,6,0,3,3,3,4,2,5,4,2,2,2,4,2,4,4,3,4,4,4,3,3,3,3,2,3,2,2,4,2,3,2,2,2,4,2,3,4,2,3,3,4,2,4,2,2,3,4,4,4,4,4,3,3,3,3,3,4,4,2.61538461538462,3,2,3,2,2,2,2,3,3,3,3,3,3,3,36.1,36.2,2,36.15,1,14,1,1,.645412047788429,.864516300447094,Kassel
1988,1,2,2,3,1,2,2,1,2,1,1,2,1,2,3,1,1.72222222222222,0,3.77777777777778,1.55555555555556,65,2.16666666666667, ,1.63636363636364,1,2,2,1,2,2,3,2,2,2,2,2,2,1,1,1,1,2,1,1,1,2,2,2,2,1,2,6,1,2,1,1,2,6,4,1,2,9:48:38,1.8,2,8,2,5,4,4,4,4,3,3,3,4,4,6,5,4,2,2,3,37,4.16666666666667,1.27272727272727,2,1,2,1,2,1,1,1,1,1,1,1,3,1,3,1,1,1,1,2,1,4,5,4,3,3,4,4,4,2,5,4,5,4,3.92307692307692,2,2,2,1, ,4,4,5, ,4,3,8,8,2,1,1, ,3,1,8,4,1, ,2,Tanzkurs, , , , ,7, , , , ,3,5,5,4,5,3,3,7,2,2,4,4,3,1,3,3,2,4,4,3,2,4,4,5,4,4,3,4,3,4,3,3,2,2,3,2,4,1,4,4,2,3,2,4,5,4,4,2,3,2,4,2,1,3,4,4,2,3,4,2,3,3,3,3,2,4,2.69230769230769,3,3,3,2,2,2,3,3,2,3,4,4,2,3,36,36.1,2,36.05,1,3,1,1,-1.32735685299884,-1.02575124237097,Kassel
1994,2,2,3,2,2,2,2,3,2,2,2,2,2,2,3,2,3.61111111111111, ,2.66666666666667,2, ,3.38888888888889,6,2.18181818181818,1,4,3,5,4,4,3,4,4,3,3,5,3,5,3,3,3,3,3,3,4,3,3,3,3,3,3,3,4,4,3,3,3,4,4,4,4,8:31:38,2.2,2,2,2,3,3,3,3,3,2,2,2,3,2,4,3,2,3,1,1,11,2.16666666666667,2,2,2,2,2,2,2,2,2,2,2,2,2,2,2,2,2,2,2,2,2,1,3,4,3,3,2,3,4,4,2,4,5,4,2,3.30769230769231,2,1,2,1, ,4,3,4,1,1, ,5,4,1, ,2,8,1, , ,1,2,1,1, , , , , , , , , , ,3,2,2,2,2,2,2,7,2,4,4,3,4,2,2,4,3,4,4,3,2,4,2,4,4,3,2,3,2,2,2,2,2,2,2,1,2,4,4,2,2,4,2,2,3,4,2,2,3,4,3,2,2,2,3,4,3,2,2,3,2,2,2,2,2,2,2.69230769230769,2,3,3,2,3,2,3,2,3,2,3,4,4,3,36,36.6,2,36.3,1, ,1,1,.392492957943907,.234427119507739,Kassel
1998,4,3,3,3,4,4,5,4,2,4,2,2,3,4,4,3,3.05555555555556,0,2.11111111111111,1.66666666666667,69,4.72222222222222,1,3.45454545454545,1,3,4,5,4,4,1,2,5,3,3,3,2,3,1,4,2,5,1,4,3,5,7,5,6,6,5,3,3,5,4,5,3,7,7,4,3,8:58:47,3.2,2,2,2,4,1,2,2,2,2,1,3,2,4,6,5,6,6,6,6,36,1,2.54545454545455,4,4,3,4,2,2,2,2,1,2,2,2,2,1,2,2,2,1,2,1,1,2,1,2,1,3,1,2,1,3,3,2,2,1,1.84615384615385,2,1,2,1, ,4,1,3,1,3,1,4,8,2,2,2,2,1, , ,2,2,3,2,Schulklasse,Volleyball,Familie, , ,20,15,3, , ,1,1,1,1,1,1,1,9,1,4,3,2,5,3,4,3,4,2,2,1,2,2,4,5,3,2,3,3,3,3,3,3,4,3,3,5,2,3,3,4,1,3,2,2,4,2,3,3,2,2,4,4,2,1,3,4,3,2,4,2,4,3,4,4,4,4,3.84615384615385,5,4,5,5,3,3,3,4,3,3,5,5,2,5,35.74,36.01,2,35.875,1,-1,1,1,-.113345221745138,1.60916715064815,Kassel
1983,2,1,1,2,2,4,5,1,2,2,1,2,2,3,4,3,1.66666666666667,2,1.44444444444444,3.22222222222222,79,5, ,2.09090909090909,1,1,1,1,1,1,1,1,1,7,1,7,1,1,1,1,1,1,1,1,7,1,7,1,1,1,7,7,7,7,7,7,1,7,7,7,7,9:47:19,2.8,2,0,2,1,1,1,1,1,1,2,2,3,5,3,5,2,3,2,3,18,6.66666666666667,2.09090909090909,3,4,4,4,1,1,1,1,2,1,1,4,4,2,4,4,2,3,2,4,2,1,4,4,2,4,1,2,3,1,2,4,4,3,2.69230769230769,1,2,2,1, ,4,4,5, ,6,1,2,2,1, ,1, ,3,1,8,1,1, ,1, , , , , , , , , , ,5,7,7,7,7,7,7,6,1,4,4,2,5,4,4,3,5,5,1,5,3,3,3,4,4,3,3,3,2,3,3,3,3,4,3,2,5,2,4,3,3,3,1,4,4,3,3,3,3,3,3,3,4,1,3,4,4,3,4,3,5,3,3,4,1,1,3.69230769230769,2,3,5,3,4,4,4,4,4,4,5,5,3,3,35.3,35.5,2,35.4,1,0,1,1,-1.37794067096775,1.8955713238024,Kassel
1986,5,5,3,4,2,5,5,5,5,3,2,2,1,1,4,1,2,0,2.33333333333333,1,74,2.27777777777778, ,4,1,4,1,1,2,1,4,1,1,7,1,1,1,1,1,5,2,1,1,1,1,1,1,1,1,1,1,6,1,1,1,1,1,7,7,7,1,9:36:32,1.8,2,20,2,5,2,4,2,2,1,1,2,2,5,7,5,2,1,2,5,30,4,1,1,1,1,1,1,1,1,1,1,1,1,1,1,1,1,1,1,1,1,1,1,2,5,4,2,5,1,1,2,2,4,2,5,1,2.76923076923077,2,2,2,1, ,4,1,4,1,3,1,5,3,1, ,2,7,1, , ,1,1, ,2,Wohngemeinschaft,Lerngruppe,Sportgruppe,Unikollegen,Foodsharing,5,3,2,5,10,4,4,4,4,5,3,4,8,1,1,1,1,5,3,1,1,4,4,1,5,4,4,5,4,5,5,5,5,1,2,4,1,1,2,4,3,1,3,5,1,3,4,4,1,3,2,4,1,1,1,2,4,5,5,2,5,5,5,5,1,4,5,5,4,1,2,3.46153846153846,3,3,4,4,3,3,2,4,3,4,5,4,3,4,35.3,35.5,2,35.4,1,0,1,1,-1.07443776315432,-.911189573109269,Kassel
1994,2,4,2,3,2,2,2,2,2,2,2,3,2,2,3,2,4.05555555555556,0,3.55555555555556,1.55555555555556,54,3.38888888888889, ,2.27272727272727,1,2,4,1,6,6,6,2,7,6,5,4,1,6,4,1,5,5,2,2,2,5,5,5,5,2,3,2,2,2,1,5,1,7,7,2,3,9:32:17,2.4,2,5,2,2,3,3,5,4,4,3,4,4,5,3,6,3,2,2,2,11,5.5,2.54545454545455,5,1,5,3,4,1,1,2,1,1,4,1,1,1,3,3,1,2,1,1,2,2,3,2,4,3,2,4,2,2,4,3,3,3,2.84615384615385,2,2,2,1, ,2,2,5, ,1, ,4,2,2,1,2,8,3,1,3,1,1, ,1, , , , , , , , , , ,5,6,5,7,5,5,5,7,1,1,4,2,4,2,2,2,4,4,4,1,1,3,4,4,3,4,2,4,2,2,4,4,2,2,2,2,2,4,4,3,3,3,2,2,3,3,4,2,3,3,4,3,2,4,3,4,2,4,4,3,4,3,3,3,4,4,3.38461538461538,4,5,4,3,2,3,4,3,3,2,4,3,3,4,35.1,35.9,2,35.5,1,1,1,1,.797163501695143,.234427119507739,Kassel
1994,1,2,2,2,5,3,3,4,1,1,4,2,3,2,5,3,2.05555555555556,0,4.77777777777778,3.22222222222222,78,4.16666666666667, ,2.54545454545455,1,1,1,1,4,4,2,1,1,2,1,2,1,6,1,6,1,1,1,5,4,1,2,1,2,3,2,7,5,7,7,7,1,7,6,2,6,9:21:45,3,2,0,2,4,4,5,5,5,5,5,5,5,1,2,4,7,1,3,1,13,4.16666666666667,2.81818181818182,4,3,3,1,3,2,4,3,1,3,4,5,5,1,5,4,1,2,1,5,2,1,3,3,1,2,1,1,1,1,2,1,1,1,1.46153846153846,1,2,2,1, ,1, ,1, ,1, ,2,8,2,3,2,5,1, , ,1,1, ,1, , , , , , , , , , ,4,5,5,4,4,3,4,5,2,4,1,1,5,2,1,1,4,4,2,3,2,5,3,4,5,5,5,4,4,4,4,4,2,2,2,3,1,3,5,1,5,1,1,1,1,4,5,3,3,3,1,2,2,3,5,1,2,3,1,1,1,1,1,4,5,3,3.23076923076923,3,4,3,3,3,4,3,3,3,3,4,5,3,3,35,36.1,2,35.55,1,8,1,1,-1.02385394518542,1.03635880433965,Kassel
1986,4,2,1,2,1,2,2,1,1,2,2,1,1,3,5,2,3.27777777777778,0,1.55555555555556,3,55,3.88888888888889, ,1.81818181818182,1,3,4,1,2,2,4,2,7,4,2,3,2,2,2,6,6,5,2,5,2,6,2,6,5,6,2,4,2,1,3,3,2,7,7,1,6,10:27:29,2.4,2,48,1,1,1,5,2,1,1,1,1,1,2,2,5,2,2,2,2,31,1.5,2.45454545454545,5,3,2,5,2,1,1,1,5,1,1,5,5,1,5,1,2,3,1,4,1,4,5,4,5,2,5,4,4,1,5,4,5,4,4,2,2,2,1, ,4,3,5, ,3,2,8,7,1, ,1, ,3,7,6,1,1, ,2,Mentoring-Gruppe, , , , ,4, , , , ,2,1,1,2,1,2,1,6,2,5,1,1,5,5,2,1,4,3,2,1,2,5,5,5,2,5,5,5,1,1,3,1,1,5,3,3,1,2,5,1,2,1,4,1,5,3,5,1,3,5,4,4,5,1,3,5,4,3,1,2,4,5,2,5,1,5,4,5,5,5,2,3,3,3,5,3,5,4,5,4,5,37.2,37.08,2,37.14,1,5,1,1,.08899005013048,.749954631185393,Kassel
1969,3,2,3,4,4,2,5,2,3,3,2,2,2,1,4,1,3.44444444444444,0,4.22222222222222,1.44444444444444,69,4.83333333333333, ,3,1,4,2,4,5,2,5,4,5,3,4,2,4,2,3,5,2,4,2,5,5,5,4,5,4,4,5,5,4,3,5,5,5,6,6,6,5,9:54:08,2,2, ,1,4,5,4,2,3,5,5,5,5,4,4,7,2,2,1,2,21,5.33333333333333,2.09090909090909,4,3,3,3,1,1,1,1,3,1,2,1,1,1,1,1,1,1,2,4,1,1,5,2,2,2,5,5,3,2,2,1,1,2,2.53846153846154,2,2,1,4,4,4,4,2,1,8,1,4,1,2,1,2,4,3,1,5,1,2,1,1, , , , , , , , , , ,7,5,5,5,5,5,5,11,1,2,4,4,4,2,2,2,3,5,2,1,1,3,5,5,4,2,2,3,2,2,4,3,3,3,2,2,2,3,3,2,4,4,2,2,4,2,4,3,2,3,4,1,2,2,4,4,4,3,2,2,2,3,3,4,1,2,3.53846153846154,3,4,4,4,3,4,3,4,3,4,5,4,2,3,36.27,36.66,2,36.465,1,-1,1,1,.240741504037194,1.72372881990985,Kassel
 ,1,1,1,5,1,1,1,1,1,1,1,5,1,5,1,5, , , , , , , ,1.36363636363636, , , , , , , , , , , , , , , , , , , , , , , , , , , , , , , , , , , , , ,9:51:03,3.4, , ,1, , , , , , , , , ,1,1,1,1,1,1,1,4,2, , , , , , , , , , , , , , , , , , , , , , ,5,5,5,5,1,5,1,5,5,1,5,5,1,3.76923076923077, , ,2,1, ,4,1,1, ,1, ,1,1,1, ,1, ,1, , ,1,1, ,1, , , , , , , , , , ,7,1,1,1,1,1,1,4,0, , , , , , , , , , , , , , , , , , , , , , , , , , , , , , , , , , , , , , , , , , , , , , , , , , , , , , , , , ,3.15384615384615,1,1,1,5,5,5,5,1,5,5,1,1,5,1,36.1, , ,36.1,1, ,1,1, , ,Kassel
 , , , , , , , , , , , , , , , , , , ,3.66666666666667,1.77777777777778, , , , , , , , , , , , , , , , , , , , , , , , , , , , , , , , , , , , , , , , , ,10:41:13, , , , ,4,4,4,4,5,2,2,4,4,4,5,7,5,5,4,4,0, ,2.18181818181818,3,3,3,3,3,1,1,2,1,1,3,2,2,2,2,1,1,1,2,3, , , , , , , , , , , , , , , , , , , , , , , , , , , , , , , , , , , , , , , , , , , , , , , , , , , , , , , , ,0,0, , , , , , , , , , , , , , , , , , , , , , , , , , , , , , , , , , , , , , , , , , , , , , , , , , , , , , , , , , , , , , , , , , , , , , , , ,36.3, , ,36.3,1, ,1,1, , ,Kassel
1995,3,4,2,4,3,3,3,2,2,2,4,2,4,3,4,2,3.38888888888889,0,3.88888888888889,3.22222222222222,56,4.05555555555556, ,2.90909090909091,1,6,3,5,5,6,3,2,5,3,2,2,2,1,4,3,5,1,3,3,5,5,6,6,2,5,5,5,2,2,7,2,4,5,5,2,2,11:22:40,3,2,3,5,4,4,4,4,4,4,3,4,4,5,6,6,3,4,3,1,20,5.33333333333333,3.18181818181818,4,4,4,4,4,2,2,2,3,2,4,4,2,3,2,3,3,4,4,4,1,4,4,4,1,3,4,2,2,4,4,1,4,2,3,2,2,2,1, ,4,4,4,1,4,3,7,5,1, ,2,8,1, , ,1,1, ,2,öğrenci topluluğu, , , , ,5, , , , ,5,6,6,6,5,4,4,7,3,4,3,3,4,2,2,4,4,4,4,2,3,4,3,4,4,4,2,4,3,2,4,4,2,2,2,2,3,3,4,2,4,4,2,2,3,3,3,1,2,4,4,4,4,2,4,3,4,4,4,2,4,4,3,3,1,5,2.61538461538462,2,3,3,2,3,2,3,4,2,2,4,4,2,2,36.6,37,2,36.8,1,4,3,2,-.372447016027604,1.23864207497744,METU
1993,1,2,1,2,1,1,1,1,2,1,2,1,1,5,4,5,1.66666666666667,0,4.66666666666667,1.33333333333333,70,1.88888888888889, ,1.36363636363636,1,2,1,1,1,6,2,1,1,2,1,2,2,2,1,1,2,1,1,2,2,2,2,2,1,1,2,2,2,6,2,2,1,1,1,1,2,11:01:06,3.2,2,2,5,5,5,5,5,5,5,4,4,4,3,2,1,1,2,2,2,15,2,1.45454545454545,2,2,2,1,2,1,1,1,1,1,2,1,2,2,1,1,1,2,1,1,2,5,5,5,5,2,4,5,4,5,5,5,5,5,4.61538461538462,1,2,2,1, ,4,4,5, ,8,2,6,6,2,1,2,8,1, , ,1,1, ,1, , , , , , , , , , ,1,2,3,2,2,2,2,7,3,4,4,2,4,1,1,1,1,4,2,2,2,2,2,4,3,1,1,3,3,2,2,2,2,2,1,2,2,2,2,2,2,2,2,2,5,5,5,1,4,5,2,3,2,2,2,2,4,4,4,2,1,2,4,2,1,1,1.46153846153846,1,2,1,1,1,5,1,1,1,1,2,3,1,1,35.7,36.3,2,36,1,3,3,2,-2.03930928503701,-.914098199522545,METU
1994,2,1,3,3,4,2,3,2,2,2,3,2,2,2,3,2,1.5, ,4,2.66666666666667,69,1.38888888888889, ,2.45454545454545,1,2,1,1,1,3,4,3,1,1,1,1,2,1,1,1,1,1,1,1,1,2,1,1,1,1,3,1,1,1,2,1,1,2,3,1,1,11:00:07,2.2,2, ,5,5,5,4,5,5,3,3,3,3,5,8,6,6,6,6,6,17,6.5,3.54545454545455,5,4,5,4,5,1,3,1,4,2,5,2,2,2,2,4,3,4,3,2,1,1,5,5,2,4,3,2,3,5,5,3,4,5,3.61538461538462,2,2,2,1, ,2,2,3,1,4,2,5,5,1, ,2,3,1, , ,1,1, ,2,Ankara Gönüllü Takımı, , , , ,5, , , , ,6,7,7,7,7,5,5,7,2,2,2,4,5,4,3,3,3,5,3,1,2,3,4,3,5,5,3,5,5,2,4,4,1,1,1,3,3,4,4,3,5,3,2,5,5,5,4,1,1,2,5,2,5,2,4,2,5,5,5,2,4,4,4,4,5,5,2.15384615384615,2,3,3,1,1,1,2,2,1,2,4,3,3,3,35.3,36.2,2,35.75,1,6,3,2,-2.20061853687663,-1.41088441671485,METU
1996,1,2,1,1,2,3,2,3,1,2,2,3,3,1,2,1,3.72222222222222,0,2,4.55555555555556,72,2.16666666666667, ,1.81818181818182,1,6,2,2,5,6,6,5,6,5,2,6,2,4,1,1,5,2,1,2,1,2,2,3,2,5,3,2,2,1,1,1,5,2,2,1,2,10:59:49,2,2,1,5,3,2,3,3,3,1,1,1,1,5,7,7,3,5,5,4,12,6.66666666666667,3.63636363636364,4,4,4,4,4,2,3,3,4,4,4,5,4,5,5,4,4,5,4,5,1,4,4,5,2,5,2,1,2,4,4,2,5,3,3.30769230769231,2,2,2,1, ,4,2,4,1,4,2,5,5,1, ,2,8,1, , ,1,1, ,1, , , , , , , , , , ,6,7,7,7,7,6,7,7,3,1,2,4,5,5,3,4,4,5,5,4,2,5,3,5,4,4,4,4,2,2,4,2,1,3,4,4,2,5,5,3,4,5,2,5,5,4,3,3,4,5,2,4,5,1,3,3,5,3,5,2,4,4,4,4,2,5,3.38461538461538,4,4,3,3,2,3,3,3,4,3,5,4,3,4,36.6,36.7,2,36.65,1,8,3,2,-.0498285123483643,-.638105856637932,METU
1995,1,2,1,2,1,1,3,1,3,1,2,2,1,3,2,2,2.5,0,4.88888888888889,2.66666666666667,64,1.27777777777778, ,1.63636363636364,1,6,2,2,1,6,4,2,2,2,1,2,2,2,1,2,6,1,1,1,1,2,1,1,2,1,1,1,1,2,2,1,1,1,1,1,2,10:48:31,2,2,17,5,5,4,5,5,5,5,5,5,5,5,8,6,6,6,6,7,19,6.33333333333333,3,4,4,4,4,4,2,2,1,2,2,4,3,3,2,4,3,3,3,1,2,1,4,2,3,3,4,4,2,3,4,4,3,3,4,3.30769230769231,1,2,2,1, ,4,4,4,1,8,6,6,6,1, ,2,8,1, , ,1,1, ,1, , , , , , , , , , ,7,7,6,7,6,5,5,7,3,2,3,3,4,4,5,5,4,3,3,3,4,4,4,4,3,5,5,5,4,3,5,4,2,2,3,4,2,3,3,2,3,4,2,5,4,4,3,3,4,3,4,4,3,2,3,2,4,5,4,4,3,2,3,3,3,1,1.92307692307692,2,2,2,2,2,1,2,2,2,1,4,3,2,1,34.6,35.8,2,35.2,1,6,3,2,-1.23276302583891,-1.52128135386869,METU
1984,1,1,1,1,1,1,1,1,1,1,1,1,1,1,1,1,4.22222222222222,0,4.55555555555556,2.11111111111111,53,1.27777777777778, ,1,1,5,5,5,5,7,7,5,5,7,1,7,5,1,1,1,7,1,1,1,1,1,1,1,1,1,1,1,1,1,1,1,1,3,1,1,4,10:36:57,1,2,0,5,5,4,5,5,5,5,5,5,2,5,7,6,1,6,6,1,23,4.83333333333333,2.63636363636364,4,4,4,4,4,1,1,1,1,1,4,2,2,2,1,4,1,1,2,4,2,5,4,1,1,1,3,1,1,1,4,1,1,1,1.92307692307692,2,2,3,1, ,4,4,5, ,3,2,6,6,1, ,2,5,3,1,8,1,1, ,1, , , , , , , , , , ,7,5,4,4,4,5,5,7,3,1,1,2,4,5,5,2,5,1,1,1,1,1,2,5,5,3,3,5,4,4,4,4,1,1,1,5,1,1,5,1,1,1,4,4,5,3,2,1,4,1,5,4,5,1,5,1,5,5,5,1,5,5,3,5,2,2,2.46153846153846,4,3,3,3,1,1,3,1,4,1,4,5,2,2,36.5,36.4,2,36.45,1,4,3,2,.434099243170495,-1.52128135386869,METU
1993,1,1,1,2,1,1,2,1,1,2,2,1,1,5,1,1,2.72222222222222, ,2.44444444444444,1.77777777777778,58,1.55555555555556, ,1.36363636363636,1,3,2,1,5,6,6,2,1,4,1,4,1,1,2,1,7,1,1,1,1,2,1,1,1,1,1,7,1,1,1,1,1,1,2,2,2,10:23:41,1.8,2, ,5,3,2,3,3,3,2,2,2,2,5,3,3,2,2,2,2,12,4,2.63636363636364,4,4,4,2,4,1,1,1,1,3,4,1,1,1,1,4,4,2,1,1,1,5,5,4,5,4,5,4,4,4,4,2,4,3,4.07692307692308,2,2,2,1, ,4,4,4,4,1, ,2,2,1, ,2,8,1, , ,1,1, ,1, , , , , , , , , , ,3,5,4,5,4,3,4,6,2,2,3,4,4,5,5,3,5,5,3,1,3,5,3,2,5,5,5,5,2,3,5,2,1,4,3,2,1,4,4,1,1,3,1,5,5,4,5,3,3,5,5,4,4,1,3,1,5,5,5,1,4,3,3,2,4,5,1.84615384615385,2,3,3,1,2,1,2,2,2,1,3,3,1,1,36.4,36.9,2,36.65,1,7,3,2,-1.01768402338608,-1.24528901098408,METU
1994,4,2,1,2,1,2,1,2,1,2,1,1,1,4,5,5,3.5,10,3.11111111111111,3.44444444444444,56,3.77777777777778, ,1.72727272727273,1,5,2,2,6,6,1,6,5,3,2,3,5,2,2,2,4,5,2,5,5,5,4,3,3,2,3,3,6,3,5,2,3,6,6,1,3,9:41:30,3.2,2,0,5,5,2,4,5,4,2,2,2,2,3,3,2,1,1,2,1,22,5.33333333333333,2.81818181818182,2,3,2,4,3,4,4,4,1,1,3,4,4,2,4,5,4,2,2,4,2,4,4,4,5,5,2,4,4,5,5,3,5,5,4.23076923076923,1,2,2,1, ,4,4,5, ,3,1,6,6,1, ,2,8,3,1,8,1,1, ,1, , , , , , , , , , ,6,5,6,6,5,4,4,7,3,4,2,4,3,2,1,3,3,4,4,2,3,3,4,3,4,1,2,2,2,2,2,3,3,1,1,1,4,5,3,4,3,5,3,4,4,4,4,1,4,4,4,5,2,4,3,4,3,4,3,4,4,1,2,3,2,1,2.07692307692308,1,2,2,2,2,2,2,2,2,2,2,5,2,4,35.5,36.3,2,35.9,1,4,3,2,-.264907514801191,.962649732092823,METU
1996,2,2,2,2,2,2,2,2,3,2,2,2,1,4,4,1,3.33333333333333, ,5,2.11111111111111,64,2.77777777777778, ,2.09090909090909,1,6,3,2,2,6,2,3,2,5,2,5,2,4,6,2,5,1,2,2,5,2,2,3,2,2,2,2,5,2,6,3,2,3,2,2,3,9:34:47,2.4,2, ,5,5,5,5,5,5,5,5,5,5,4,3,2,1,2,3,1,26,4.83333333333333,1.72727272727273,2,2,2,1,2,1,1,1,3,2,2,2,2,4,2,2,1,2,1,3,2,4,3,5,2,4,5,3,4,5,4,3,4,5,3.92307692307692,1,2,2,1, ,4,4,5, ,8,8,8,8,2,1,2,8,1, , ,1,1, ,2,Discord, , , , ,3, , , , ,3,6,6,6,4,4,5,7,3,4,3,4,4,2,4,3,3,3,2,2,4,4,4,2,3,4,4,5,5,3,3,4,1,1,1,4,4,4,1,4,4,5,2,3,5,2,2,2,4,3,4,4,3,2,5,2,2,2,4,4,3,2,4,2,1,2,1.76923076923077,2,2,2,2,2,2,2,2,2,1,1,3,2,1,36.6,36.5,2,36.55,1,2,3,2,-.42621676664081,-.0309227022917839,METU
1996,4,4,3,4,4,2,4,4,4,4,2,2,4,3,4,3,3.72222222222222,0,3,3.55555555555556,64,4.27777777777778, ,3.54545454545455,1,4,4,6,5,5,4,2,6,3,4,4,2,2,2,3,5,4,2,6,6,6,2,6,3,5,3,2,5,5,5,3,3,5,6,2,4,11:32:15,3.2,2,0,4,4,4,3,2,4,3,2,3,2,3,3,3,3,2,3,1,20,4.5,3.18181818181818,4,4,3,4,4,2,2,3,3,4,2,3,4,4,4,3,4,4,2,4,1,4,1,3,2,4,3,2,1,2,3,3,4,3,2.69230769230769,2,2,2,1, ,4,2,4,1,4,2,6,6,1, ,2,4,1, , ,1,1, ,2,BEST, , , , ,20, , , , ,4,5,6,4,4,4,5,7,2,2,2,3,4,3,4,3,3,4,4,2,2,4,3,4,3,3,4,3,3,2,3,3,2,2,4,2,4,4,4,3,4,5,3,2,2,2,3,4,3,4,4,4,3,2,4,2,4,3,4,4,2,3,4,3,2,4,2.69230769230769,3,3,3,2,2,2,2,3,3,2,4,4,4,2,35.9,36.2,2,36.05,1,2,3,2,-.0498285123483643,1.45943594928513,METU
1995,3,5,2,5,3,2,5,5,5,5,2,1,2,3,2,2,2,0,3.22222222222222,3.11111111111111,58,3.61111111111111,15,3.81818181818182,1,6,1,1,3,4,3,1,2,2,1,1,1,2,1,1,4,1,1,3,3,5,5,4,3,4,4,3,2,3,5,2,4,5,6,2,2,11:24:41,2,2,10,4,4,4,3,4,4,3,3,2,2,5,4,2,2,3,2,2,18,6.33333333333333,2.72727272727273,4,3,3,4,4,1,2,1,2,2,4,3,3,3,4,3,4,3,1,4,1,2,3,4,2,4,2,3,2,2,4,2,4,3,2.84615384615385,1,1,2,1, ,4,4,4,1,4,4,6,4,1, ,2,8,2,1,2,1,1, ,1, , , , , , , , , , ,5,7,7,7,7,5,5,8,2,2,2,4,4,4,3,3,4,3,4,1,3,3,5,5,3,4,4,4,4,3,4,3,2,3,1,3,2,4,4,2,4,5,4,5,4,3,5,2,3,4,2,3,4,1,4,3,4,4,4,3,4,3,3,3,2,5,3.07692307692308,3,3,4,3,3,2,3,3,3,3,3,4,4,3,36.4,36.4,2,36.4,1,7,3,2,-1.71669078135777,.797054326362055,METU
1993,2,4,1,4,4,3,4,4,4,3,4,2,3,4,4,2,2.55555555555556,0,4,2.11111111111111,71,4.66666666666667,7,3.36363636363636,1,3,2,5,4,4,2,2,3,2,2,2,2,4,1,2,3,1,2,3,6,6,7,5,5,6,6,5,3,3,5,2,5,6,6,2,3,11:17:30,3,2,6,4,4,5,4,4,4,4,3,4,4,3,5,3,3,2,4,4,14,4.83333333333333,3.18181818181818,4,4,4,4,4,2,2,2,2,3,4,2,2,1,2,3,3,2,2,2,2,3,2,5,2,4,2,2,3,4,3,4,4,4,3.23076923076923,2,1,2,1, ,2,2,5, ,3,3,2,2,1, ,2,4,1, , ,1,1, ,2,FUTSAL TAKIMI, , , , ,5, , , , ,4,6,6,5,4,4,4,6,1,2,4,2,5,4,2,3,5,4,3,2,2,4,5,5,4,5,5,4,4,4,4,4,1,1,3,4,2,4,5,2,4,4,3,4,4,2,4,4,3,4,4,2,4,2,3,2,4,2,4,3,4,4,3,4,2,4,2.84615384615385,3,3,2,4,3,3,2,2,4,2,4,3,2,3,36.2,36.2,2,36.2,1,8,3,2,-1.1789932752257,1.84582522932358,METU
1991,2,2,2,2,2,2,2,2,2,2,2,3,3,3,4,2,3.11111111111111,0,4.44444444444444,3.11111111111111,49,2.55555555555556, ,2,1,5,2,1,3,5,5,2,3,5,2,6,2,2,2,2,6,2,1,3,3,4,2,2,2,2,2,2,3,2,3,2,2,4,4,2,2,11:17:02,3,2,33,4,5,4,4,4,4,5,5,5,4,5,4,4,2,3,2,3,23,4.83333333333333,3.54545454545455,3,4,4,3,4,4,4,2,4,3,4,3,3,4,3,4,2,4,1,4,1,4,2,3,2,2,1,1,2,1,3,2,3,2,2.15384615384615,1,2,2,1, ,4,4,4,1,8,6,8,8,1, ,2,8,1, , ,3,1, ,1, , , , , , , , , , ,5,5,5,5,5,4,4,7,3,4,2,3,4,2,1,4,3,5,3,3,4,4,3,2,5,4,4,4,4,4,4,4,2,2,3,3,4,4,3,4,3,3,2,3,4,2,2,3,3,2,4,3,3,2,4,3,4,4,4,2,3,3,3,2,3,2,3,3,3,3,3,3,3,2,4,3,3,3,4,3,3,35.3,35.2,2,35.25,1,6,3,2,-.641295769093637,-.251716576599474,METU
1992,4,4,4,2,4,4,4,4,3,4,4,2,3,2,3,1,4.94444444444444,0,4.55555555555556,2.33333333333333,60,3.22222222222222, ,3.72727272727273,1,7,5,5,4,6,4,5,6,2,5,6,3,4,5,5,6,6,5,6,2,5,3,2,2,5,2,5,1,2,2,3,5,4,4,3,2,11:15:15,2.2,2,1,4,5,5,5,5,5,4,5,3,4,4,6,2,4,4,4,2,15,2.66666666666667,3.36363636363636,3,4,3,3,4,3,3,3,4,4,3,2,1,2,2,4,2,4,2,2,2,2,3,2,1,3,3,4,2,1,4,2,2,4,2.53846153846154,1,2,3,1, ,4,4,5, ,4,4,5,5,1, ,2,3,1, , ,1,1, ,1, , , , , , , , , , ,3,3,3,2,3,2,3,6,2,4,4,4,4,3,5,5,2,4,3,4,4,4,4,2,3,4,4,3,4,4,4,4,3,3,3,3,1,5,5,3,2,3,3,4,4,4,4,3,4,3,3,4,4,3,3,4,3,4,3,2,4,4,4,4,4,4,2.92307692307692,3,3,3,3,2,3,3,3,3,3,3,3,3,3,36.2,36.5,2,36.35,1,9,3,2,1.13310600114218,.410665046323597,METU
1997,1,5,1,3,5,1,5,4,1,4,2,1,5,1,5,1,4.38888888888889,0,5,3.55555555555556,68,4.16666666666667, ,2.90909090909091,1,7,2,4,4,7,7,5,4,2,4,7,4,4,1,4,6,3,4,5,4,4,4,6,4,4,4,7,3,1,7,4,5,4,4,1,4,11:14:31,2.6,2,15,4,5,5,5,5,5,5,5,5,5,5,7,7,2,5,7,1,12,7,3.09090909090909,5,4,5,5,1,2,1,1,4,1,5,5,2,2,2,5,2,5,4,5,2,1,1,5,4,4,1,3,1,1,3,1,1,5,2.38461538461538,2,2,2,1, ,4,4,5, ,8,3,3,3,1, ,2,8,1, , ,1,1, ,1, , , , , , , , , , ,7,7,7,7,7,7,7,6,2,4,1,5,5,3,5,5,2,5,5,5,3,4,1,2,5,3,3,4,5,4,4,4,2,1,1,1,5,5,3,5,3,5,1,5,3,1,4,5,2,1,5,5,2,5,5,1,3,1,2,1,5,5,3,1,1,5,3.23076923076923,3,4,4,1,2,4,3,4,3,3,3,5,4,4,35.8,36.6,2,36.2,1,5,3,2,.595408495010115,1.34903901213128,METU
1995,2,2,2,3,2,2,2,2,3,2,2,2,3,2,4,2,1.94444444444444,0,4,2.33333333333333,64,1.66666666666667, ,2.18181818181818,1,2,1,1,1,5,2,1,1,2,2,2,4,2,2,1,3,2,1,1,1,2,1,3,1,1,2,1,2,1,3,2,2,2,1,1,3,11:14:11,2.6,2,4,4,4,3,3,5,4,5,5,3,4,3,3,3,1,4,1,1,18,5.16666666666667,1.81818181818182,2,2,2,1,1,2,3,2,2,1,2,2,4,1,2,2,2,3,1,4,1,5,4,3,3,3,4,1,4,4,4,3,4,4,3.53846153846154,1,2,2,1, ,4,2,4,1,8,3,4,3,1, ,2,8,1, , ,1,1, ,2,ODTÜ Robot Topluluğu, , , , ,9, , , , ,3,6,6,6,5,5,5,7,2,4,3,2,5,2,4,4,2,3,1,5,4,4,4,2,3,4,4,5,4,4,5,5,1,2,1,4,2,3,3,2,4,4,1,2,4,3,4,2,3,3,5,3,4,2,4,4,5,5,5,2,1,4,2,2,1,4,1.92307692307692,2,3,3,2,2,2,2,1,2,2,1,4,2,1,36.6,36,2,36.3,1,6,3,2,-1.77046053197097,-1.13489207383024,METU
1996,3,3,3,3,5,4,4,2,2,5,2,2,4,2,4,2,5.16666666666667,0,3.77777777777778,2.88888888888889,58,3.88888888888889, ,3.27272727272727,1,6,4,7,7,6,7,7,5,3,6,3,7,5,4,5,7,2,2,6,3,2,3,6,6,3,4,3,3,3,6,5,4,3,3,2,5,11:14:03,2.8,2,11,4,3,4,3,5,5,3,3,4,4,4,5,7,1,2,3,4,37,5.66666666666667,3.18181818181818,5,3,5,2,5,2,2,1,2,3,5,1,2,1,4,4,5,4,1,4,1,4,4,3,3,3,3,3,3,4,4,4,3,1,3.23076923076923,1,2,2,1, ,4,4,4,4,5,5,8,8,1, ,2,8,1, , ,1,1, ,2,hokey takımı,capueira topluluğu, , , ,7,7, , , ,7,5,5,5,6,6,5,7,3,4,2,4,4,4,5,5,4,5,4,4,4,4,5,4,5,4,4,3,4,4,4,5,3,2,3,2,4,5,5,4,1,5,2,4,4,3,5,3,2,2,4,3,3,1,4,2,4,4,5,2,3,4,5,3,1,4,2.30769230769231,2,3,3,2,2,2,2,2,2,3,3,4,2,2,36,36.3,2,36.15,1,7,3,2,1.34818500359501,1.07304666924667,METU
1995,2,2,1,2,2,2,1,2,2,1,2,1,2,3,2,1,2.66666666666667,0,4,2.77777777777778,62,2.11111111111111, ,1.72727272727273,1,6,1,1,3,6,6,5,2,2,1,3,1,1,2,1,5,1,1,1,1,2,2,1,5,5,2,2,1,1,1,1,5,2,2,2,2,11:12:40,1.8,2,0,4,4,4,4,4,5,4,3,4,4,4,6,6,1,4,5,4,13,4.66666666666667,2.63636363636364,4,4,3,3,4,1,1,2,1,2,4,3,3,2,4,4,2,4,1,2,1,2,3,4,3,4,1,2,2,3,4,2,2,4,2.76923076923077,2,2,2,1, ,4,4,5, ,4,3,3,3,1, ,2,7,1, , ,1,2,1,1, , , , , , , , , , ,5,5,5,5,4,4,4,7,2,3,1,4,5,1,2,4,2,5,5,2,2,5,4,3,4,4,4,4,4,3,4,4,1,1,1,3,3,5,5,2,2,2,4,4,2,2,2,3,2,3,4,2,1,2,2,4,4,3,4,2,4,4,4,2,2,4,3.30769230769231,3,4,4,4,3,3,3,3,4,3,3,4,3,3,35.5,36.6,2,36.05,1,5,3,2,-1.07145377399929,-.693304325214855,METU
1995,2,2,1,3,2,3,3,3,2,2,3,2,2,2,2,1,2.72222222222222,0,5,2.77777777777778,58,2.38888888888889, ,2.36363636363636,1,2,2,5,2,4,4,3,2,4,2,4,2,2,1,1,5,2,2,2,2,2,2,2,2,2,5,2,2,2,5,2,2,2,3,1,3,11:12:12,1.8,2,0,4,5,5,5,5,5,5,5,5,5,5,6,5,2,4,4,2,12,2.5,2.72727272727273,5,2,4,5,3,1,1,2,1,1,5,3,3,2,3,4,2,2,2,4,1,3,2,4,5,4,4,2,2,3,3,3,4,4,3.30769230769231,2,2,2,1, ,4,4,5, ,8,2,4,4,1, ,2,8,1, , ,1,1, ,1, , , , , , , , , , ,3,2,3,4,2,1,1,6,2,2,2,4,4,2,3,4,3,5,3,2,4,4,4,3,3,4,4,4,5,3,3,3,2,2,2,2,4,4,4,4,3,3,2,4,4,3,3,2,4,4,5,4,3,2,4,3,4,3,5,3,4,4,4,3,2,4,2.84615384615385,3,3,3,2,3,2,3,3,3,3,3,3,3,3,36.4,36.3,2,36.35,1,7,3,2,-1.01768402338608,-.417311982330242,METU
1995,2,2,1,3,2,1,1,3,1,1,3,2,2,2,2,4,3.77777777777778, ,5,2.88888888888889,69,2.72222222222222,5,1.81818181818182,1,6,5,2,2,3,6,6,2,6,6,5,4,2,2,1,7,1,2,3,2,7,2,2,1,2,2,2,1,1,2,2,2,7,7,2,2,11:11:15,2.4,2, ,4,5,5,5,5,5,5,5,5,5,4,5,3,2,2,3,3,12,5.83333333333333,2.90909090909091,2,4,2,5,3,3,4,1,4,3,1,2,3,2,4,4,1,2,4,4,1,4,4,5,3,2,4,2,4,4,4,3,2,4,3.46153846153846,2,1,2,1, ,4,2,5, ,3,2,4,3,1, ,2,8,1, , ,1,1, ,2,öğrenci topluluğu, , , , ,3, , , , ,7,7,6,5,6,4,6,6,2,2,2,5,4,1,5,1,1,5,5,5,3,2,3,3,5,5,5,5,5,2,5,5,1,2,1,1,5,5,3,4,3,1,1,5,5,5,5,1,1,5,5,1,5,3,3,5,5,5,5,2,5,3,2,3,4,5,2.61538461538462,3,4,4,2,2,2,2,3,3,2,2,5,3,2,36.3,36.2,2,36.25,1,6,3,2,.00394123826484211,-.0861211708687063,METU
1995,5,5,3,4,4,4,5,4,3,4,5,2,5,2,3,3,3.11111111111111,0,4.33333333333333,2.33333333333333,64,1.66666666666667, ,4.18181818181818,1,7,2,1,2,7,6,2,2,4,1,3,2,4,1,2,6,3,1,1,2,2,2,2,3,1,2,2,4,1,1,1,2,1,1,1,1,11:10:30,3,2,4,4,5,5,4,5,5,5,4,3,3,4,6,7,2,4,6,5,23,6.33333333333333,2.90909090909091,4,4,4,2,4,2,1,3,4,2,2,2,2,2,3,2,4,3,2,1,1,4,5,3,4,5,4,2,2,3,3,4,2,3,3.38461538461538,1,2,2,1, ,4,4,4,1,8,3,5,5,2,8,2,8,1, , ,1,1, ,1, , , , , , , , , , ,6,6,6,7,7,6,6,8,4,2,4,5,4,2,3,2,4,5,3,1,4,5,3,3,4,5,5,5,4,5,5,4,2,3,3,2,4,5,3,4,3,2,2,4,4,3,2,3,4,5,4,4,5,2,5,2,4,4,4,1,3,4,2,3,2,3,3.30769230769231,3,5,4,3,3,2,4,4,3,3,5,5,1,3,36,36.3,2,36.15,1,6,3,2,-.641295769093637,-1.13489207383024,METU
1995,2,2,3,2,3,3,2,2,4,2,2,2,4,3,3,2,3.22222222222222,0,3.66666666666667,3.22222222222222,64,1.55555555555556, ,2.45454545454545,1,7,2,2,3,7,3,4,2,3,2,5,2,1,2,3,5,4,1,2,1,2,2,2,2,1,2,2,1,1,1,1,2,2,1,1,2,11:09:55,2.8,2,6,4,4,3,4,5,4,3,2,4,4,5,7,5,5,5,6,4,38,5.66666666666667,3.72727272727273,4,4,4,4,4,3,3,4,4,3,4,4,4,3,4,2,1,4,3,4,1,4,4,3,3,4,4,4,3,3,4,3,4,4,3.61538461538462,2,2,1,1, ,4,4,4,2,1, ,3,3,1, ,2,8,1, , ,1,2,8,2,psikoloji topluluğu,küba salsa dans grubu,toplum gönüllüleri vakfı, , ,7,7,5, , ,7,6,5,5,6,5,6,7,3,4,4,4,5,2,4,4,4,5,5,2,3,4,3,3,4,5,4,5,5,5,5,5,2,2,1,4,4,5,4,4,5,5,3,5,4,4,4,2,2,2,4,3,5,3,4,4,5,5,4,2,4,5,3,4,2,5,2.61538461538462,2,2,4,2,2,2,2,3,2,2,5,5,2,4,36.3,36.6,2,36.45,1,2,3,2,-.533756267867223,-1.24528901098408,METU
1994,4,2,5,2,5,4,4,2,2,3,4,2,4,3,1,1,4.11111111111111,2,5,2.77777777777778,69,2,7,3.36363636363636,1,7,5,4,6,1,7,4,5,2,2,6,5,2,5,2,6,4,1,2,2,2,1,2,2,2,2,2,1,1,3,2,2,2,4,1,3,11:08:15,2.2,2,1,4,5,5,5,5,5,5,5,5,5,4,4,6,3,4,1,5,12,6.5,2.18181818181818,2,4,3,1,3,1,1,1,4,1,3,4,4,3,4,3,1,3,1,2,1,2,4,4,4,4,1,2,3,2,4,3,4,3,3.07692307692308,2,1,2,1, ,4,2,4,1,4,3,3,2,1, ,2,8,1, , ,1,2,2,1, , , , , , , , , , ,5,7,7,7,7,6,6,8,2,2,3,2,4,4,2,3,5,5,4,1,4,5,2,2,4,5,5,5,5,5,5,5,1,2,1,3,1,5,5,3,5,4,3,3,1,5,1,1,4,3,4,3,5,2,5,1,5,5,5,1,5,5,4,3,2,5,3,3,3,4,3,3,2,3,3,3,4,2,4,3,3,36.4,36.7,2,36.55,1,6,3,2,.326559741944081,-.8037012623687,METU
1993,2,2,2,2,3,4,3,2,2,2,3,4,2,4,2,2,3.05555555555556,0,4.88888888888889,3.22222222222222,71,2.66666666666667, ,2.45454545454545,1,6,2,2,4,6,2,2,5,4,2,5,2,2,2,2,3,2,2,2,2,4,3,6,4,2,3,2,2,3,2,2,2,2,2,2,3,11:08:09,2.8,2,0,4,5,5,5,5,5,5,4,5,5,4,7,6,2,2,3,4,12,6,4,4,4,4,4,4,4,4,4,4,4,4,3,4,4,3,4,3,2,2,4,1,4,2,4,2,3,3,4,1,2,4,2,3,2,2.76923076923077,1,2,2,1, ,4,4,4,1,3,1,6,4,1, ,2,4,1, , ,1,1, ,1, , , , , , , , , , ,6,6,6,6,6,6,6,7,1,3,3,4,4,3,3,3,3,3,4,2,3,4,4,4,3,4,4,4,4,4,4,4,2,2,3,4,2,3,4,3,3,2,2,4,4,3,2,3,4,3,4,3,4,2,4,3,4,4,3,2,3,4,2,3,4,2,2.46153846153846,2,3,3,2,3,2,2,2,2,2,4,4,3,2,35.5,37,2,36.25,1,8,3,2,-.695065519706843,-.141319639445629,METU
1993,2,2,2,2,2,2,3,2,4,2,2,2,3,2,1,2,3.66666666666667, ,3.66666666666667,3.33333333333333,70,3.05555555555556, ,2.27272727272727,1,5,5,3,3,6,5,2,5,5,2,5,2,6,2,1,6,1,2,3,2,5,2,2,2,5,3,2,3,3,5,2,5,2,5,2,2,11:08:08,2,2, ,4,5,4,4,4,5,3,2,4,2,4,5,6,3,4,5,5,13,5.33333333333333,2.81818181818182,4,4,4,4,4,1,1,1,2,3,3,4,4,4,4,2,2,4,2,4,2,5,3,4,3,2,2,1,3,2,4,3,3,2,2.84615384615385,2,2,4,1, ,4,4,5, ,6,1,6,6,1, ,2,8,1, , ,1,1, ,1, , , , , , , , , , ,6,6,6,5,6,3,3,6,3,1,1,2,4,4,4,3,4,4,4,5,4,4,3,4,4,4,4,4,4,4,4,4,2,3,2,4,2,4,4,2,4,4,2,5,3,2,3,2,2,2,4,2,2,2,3,4,4,3,4,1,4,4,4,2,4,1,3.23076923076923,3,3,4,3,3,3,3,3,4,3,3,4,3,4,36.8,36.6,2,36.7,1,3,3,2,-.103598262961571,.245069640592829,METU
1994,2,2,2,2,2,2,2,2,2,2,3,2,2,1,3,2,4.44444444444444,0,3.77777777777778,3.88888888888889,71,2.55555555555556, ,2.09090909090909,1,6,3,6,6,7,5,6,5,5,2,5,3,2,5,2,7,3,2,1,1,3,2,4,2,2,2,2,1,5,2,6,2,3,4,2,2,11:05:02,2,2,4,4,4,4,4,4,4,4,2,4,4,5,6,2,1,5,4,2,15,3.33333333333333,3.54545454545455,5,4,5,4,4,2,2,4,2,2,5,4,4,4,4,5,2,4,3,5,1,5,1,4,2,1,3,1,1,2,2,2,2,2,2.15384615384615,2,2,2,1, ,4,4,4,1,4,3,5,5,1, ,2,7,1, , ,1,1, ,1, , , , , , , , , , ,3,3,3,5,3,3,2,7,3,5,1,5,5,1,5,5,1,5,5,5,2,5,5,4,2,3,3,5,4,2,4,4,2,2,2,1,5,5,2,4,5,5,2,2,3,2,4,2,2,2,4,3,2,2,4,4,2,1,4,4,2,1,4,2,1,2,2.38461538461538,2,3,2,2,2,2,2,3,2,3,2,3,4,2,36.6,36.5,2,36.55,1,7,3,2,.649178245623321,-.251716576599474,METU
1996,4,4,3,4,3,4,2,4,3,4,4,2,2,2,3,1,4.05555555555556,0,3.22222222222222,4.66666666666667,64,4.61111111111111,5,3.54545454545455,1,5,3,4,5,4,3,5,5,5,4,5,2,5,4,2,5,5,2,4,5,5,5,6,5,5,5,6,3,3,5,4,5,5,5,2,5,11:04:47,2,2,3,4,4,4,4,3,3,4,3,2,2,4,3,5,2,3,4,3,13,6.16666666666667,4.18181818181818,5,4,5,5,4,4,2,5,3,4,5,5,5,5,5,4,5,5,3,5,2,3,3,5,2,2,4,1,3,3,1,3,4,3,2.84615384615385,2,1,3,1, ,4,2,5, ,4,1,8,8,1, ,2,8,1, , ,1,1, ,1, , , , , , , , , , ,6,6,6,7,7,5,4,6,2,2,2,4,5,3,3,4,3,5,5,2,4,4,4,3,4,4,4,5,3,3,4,2,1,4,2,2,5,5,4,4,3,4,2,4,4,2,2,2,2,2,4,2,4,3,3,4,4,4,4,3,4,4,3,4,1,4,3.07692307692308,3,3,3,3,3,2,3,2,3,4,4,4,4,3,36.7,36.4,2,36.55,1,6,3,2,.272789991330875,1.79062676074666,METU
1989,5,3,1,2,2,2,2,2,2,1,5,2,4,2,1,2,4.05555555555556,0,4.66666666666667,3.33333333333333,74,3.61111111111111,15,2.45454545454545,1,7,4,4,5,3,6,4,6,4,3,4,4,2,4,2,5,4,2,7,5,6,3,5,3,4,2,4,3,4,3,3,5,2,2,2,2,11:03:33,2.2,2,0,4,5,4,4,5,5,4,5,5,5,4,4,5,2,4,2,2,17,5.33333333333333,3.72727272727273,4,4,4,4,4,4,4,3,4,2,4,3,4,2,4,3,2,4,3,5,1,2,4,4,3,2,1,3,4,4,3,3,2,4,3,2,1,2,1, ,4,4,4,4,5,3,8,4,1, ,2,8,1, , ,1,1, ,1, , , , , , , , , , ,6,4,6,5,7,4,5,7,2,4,2,5,4,1,2,4,1,5,5,4,4,4,4,4,3,2,2,5,5,3,4,4,1,1,1,1,4,5,1,5,1,4,1,4,3,5,4,1,2,2,4,3,1,4,4,4,3,4,4,3,2,2,4,3,2,2,2.92307692307692,3,4,4,3,2,2,3,3,3,2,4,3,2,3,36.3,36.7,2,36.5,1,12,3,2,.272789991330875,.797054326362055,METU
1991,2,1,1,1,2,2,4,1,2,2,1,2,2,2,2,2,1.72222222222222,0,3.33333333333333,2.22222222222222,64,1.66666666666667,15,1.72727272727273,1,5,1,2,1,2,1,1,1,1,1,1,2,2,5,1,2,1,1,1,1,2,2,1,2,1,2,1,1,2,2,1,1,2,1,2,5,11:02:26,2,2,3,4,4,3,4,5,3,3,1,3,4,5,7,5,2,6,5,5,35,4.83333333333333,2.54545454545455,4,4,3,4,4,1,1,1,2,1,3,2,2,2,2,4,1,2,1,4,1,3,3,1,2,2,2,2,3,5,4,2,4,2,2.69230769230769,2,1,2,1, ,4,4,4,1,8,5,8,8,1, ,2,8,1, , ,1,2,8,2,siyasi parti, , , , ,7, , , , ,6,5,6,4,4,4,3,8,4,4,2,5,4,1,3,5,2,5,2,5,4,5,4,5,5,4,4,5,3,2,4,3,1,2,2,1,4,2,2,4,1,5,1,1,3,2,4,2,3,2,5,2,2,2,3,4,5,5,5,4,5,4,5,2,5,5,2.53846153846154,3,4,3,2,2,1,2,2,3,3,3,3,3,2,36.5,36.4,2,36.45,1,2,3,2,-1.9855395344238,-1.13489207383024,METU
1993,2,2,1,2,2,2,2,3,2,2,2,1,2,2,2,2,3.5,0,2.22222222222222,3.33333333333333,78,1.72222222222222, ,2,1,5,5,3,5,6,4,2,3,2,2,3,3,3,3,2,5,5,2,2,1,3,1,2,1,2,1,2,3,2,1,1,2,1,2,2,2,11:00:45,1.8,2,6,4,2,2,4,4,2,2,1,1,2,4,2,2,1,2,3,3,14,5.16666666666667,3.72727272727273,5,4,5,5,5,2,2,2,4,2,5,4,3,2,4,3,4,4,2,4,1,2,4,2,5,5,3,4,3,4,4,4,5,4,3.76923076923077,1,2,2,1, ,4,2,4,1,2,2,4,2,1, ,2,4,3,1,4,1,1, ,1, , , , , , , , , , ,3,6,6,6,6,4,4,8,1,2,2,4,4,2,4,4,2,4,4,5,3,4,4,4,4,3,4,5,2,3,5,2,2,2,1,3,4,4,3,4,4,4,3,2,3,4,2,1,4,4,4,4,4,2,4,4,5,5,4,3,2,4,3,4,2,2,2.23076923076923,2,3,3,2,2,1,3,2,2,2,3,5,2,2,35.5,36,2,35.75,1,8,3,2,-.264907514801191,-1.07969360525331,METU
1993,2,2,1,2,2,2,2,2,2,2,2,2,2,2,2,2,3.44444444444444,0,4.33333333333333,2.88888888888889,72,1.94444444444444, ,1.90909090909091,1,4,2,4,3,7,5,4,5,3,2,5,2,2,2,2,6,2,2,2,2,2,2,2,2,2,2,2,2,1,2,2,2,2,2,2,2,11:00:32,2,2,8,4,5,5,5,5,5,3,3,4,4,4,6,6,1,5,5,5,25,5.16666666666667,2.27272727272727,2,2,2,2,3,2,2,2,4,2,2,3,4,2,4,4,3,2,2,2,1,4,4,5,2,3,2,2,2,4,5,2,4,4,3.30769230769231,2,2,2,1, ,4,4,4,2,8,3,4,4,1, ,2,5,1, , ,1,2,3,2,psikoloji topluluğu,PÖMYAP,TÇYÖV, , ,2,3,2, , ,5,5,5,6,6,4,5,8,2,2,2,3,4,2,2,3,3,5,5,2,4,4,3,4,4,3,4,5,4,4,5,4,1,1,1,2,4,4,4,4,2,3,2,4,2,2,2,2,4,3,4,2,4,2,4,3,4,3,4,2,4,3,2,2,2,3,2.38461538461538,2,3,3,2,2,3,2,2,2,2,3,4,3,2,35.7,36.4,2,36.05,1,8,3,2,-.318677265414397,-.858899730945623,METU
1994,1,1,1,1,1,1,1,1,2,1,1,1,1,1,3,1,2.88888888888889,0,4.66666666666667,2.55555555555556,60,1.38888888888889,5,1.09090909090909,1,2,2,1,1,7,2,1,6,2,2,6,1,1,2,6,2,7,1,2,2,2,1,1,1,1,1,1,2,1,2,1,2,1,1,1,2,11:00:08,1.4,2,0,4,5,4,5,5,5,5,4,4,5,4,6,7,4,5,7,1,16,6.83333333333333,3.27272727272727,5,3,5,4,4,1,1,2,3,4,4,2,1,2,3,5,2,4,3,1,1,4,2,5,5,1,2,2,2,1,5,2,5,2,2.92307692307692,2,1,2,1, ,4,4,4,4,4,1,5,5,1, ,2,4,1, , ,1,1, ,1, , , , , , , , , , ,7,7,7,7,7,6,6,7,2,2,2,3,4,4,5,5,4,4,4,1,3,5,5,5,5,5,5,5,5,4,5,5,2,2,1,5,1,3,4,4,5,3,3,4,4,4,4,1,4,3,4,3,4,1,4,3,4,4,5,1,4,5,4,4,5,5,3.38461538461538,4,5,4,3,2,1,2,5,3,2,5,5,3,5,34.6,36.4,2,35.5,1,9,3,2,-.856374771546463,-1.41088441671485,METU
1996,2,2,1,2,3,2,3,2,3,2,2,3,3,4,3,2,2.16666666666667,0,4.44444444444444,2.77777777777778,72,2.16666666666667,5,2.18181818181818,1,2,1,1,2,4,2,2,2,2,1,3,2,2,2,2,5,3,1,1,2,2,2,2,2,3,2,2,2,3,2,2,3,2,2,3,2,10:58:39,3,2,22,4,5,5,5,5,5,5,4,3,3,3,3,3,1,2,4,4,19,5,3.63636363636364,4,4,4,4,4,4,3,3,2,4,4,3,3,4,4,2,2,2,1,4,1,3,3,3,2,5,4,2,2,4,3,2,4,3,3.07692307692308,1,1,2,1, ,4,4,5, ,8,5,8,8,1, ,2,8,1, , ,1,1, ,1, , , , , , , , , , ,6,5,5,5,5,4,4,6,3,2,2,3,5,3,2,2,2,4,4,1,4,4,3,4,3,4,4,4,4,3,4,4,2,2,1,4,2,3,2,3,4,4,1,4,4,4,3,2,4,3,4,4,4,2,4,2,4,3,4,3,3,4,3,3,3,4,2.07692307692308,1,2,2,3,3,2,2,2,2,2,3,3,2,1,36.2,36.2,2,36.2,1,8,3,2,-1.55538152951815,-.638105856637932,METU
1993,5,5,3,4,5,2,4,5,2,2,5,4,5,2,2,5,3.16666666666667,0,5,3.77777777777778,70,3.5,20,3.81818181818182,1,7,2,2,4,2,2,2,5,2,2,2,4,4,3,2,7,3,2,6,4,2,4,4,6,5,1,2,5,6,5,4,3,2,1,2,1,10:58:17,3.6,2,6,4,5,5,5,5,5,5,5,5,5,4,6,6,2,2,6,6,46,6.83333333333333,2.72727272727273,2,4,2,2,4,2,4,4,2,2,2,4,4,4,4,4,3,4,3,4,1,1,1,1,1,3,1,2,1,1,3,1,1,3,1.53846153846154,1,1,2,1, ,4,2,5, ,5,5,5,5,2,8,2,3,3,1,1,1,2,8,2,ngo,ip, , , ,8,12, , , ,6,7,7,7,7,7,7,9,4,4,4,5,5,4,4,4,4,5,5,2,4,4,2,4,1,5,5,5,5,3,5,5,1,1,1,2,2,4,4,4,3,3,2,1,1,1,1,4,3,4,4,4,4,2,4,2,5,5,5,4,3,5,3,3,3,3,3.30769230769231,3,4,4,3,3,3,3,4,3,4,4,3,2,3,35.3,36,2,35.65,1,3,3,2,-.58752601848043,.68665738920821,METU
1989,2,3,4,3,4,2,4,2,2,2,2,2,1,2,2,2,3.44444444444444, ,3.55555555555556,3.11111111111111,58,1.88888888888889, ,2.72727272727273,1,6,2,2,3,2,7,3,5,3,2,6,2,2,6,2,6,2,1,2,2,2,2,2,1,1,2,2,3,2,1,2,2,2,2,2,2,10:58:09,1.8,2,59,4,4,2,4,4,2,4,4,4,4,5,6,1,1,3,2,2,21,5.33333333333333,2.90909090909091,4,4,4,4,4,1,1,2,2,2,4,2,3,4,4,5,3,2,1,4,1,2,2,2,2,2,5,1,2,4,3,2,2,2,2.38461538461538,1,2,4,1, ,4,4,4,1,1, ,8,8,1, ,2,1,3,1,5,1,1, ,1, , , , , , , , , , ,4,6,6,6,5,5,5,7,2,3,3,4,4,2,2,2,2,4,2,1,4,4,4,3,4,4,4,5,2,4,4,2,2,4,1,2,4,3,3,2,2,4,2,2,4,2,2,3,2,4,4,2,3,2,4,2,4,4,4,1,4,2,2,3,2,2,2.92307692307692,3,3,2,3,2,3,3,3,4,5,2,2,3,2,36,36.1,2,36.05,1,7,3,2,-.318677265414397,-.914098199522545,METU
1994,4,4,4,4,4,4,4,4,4,5,4,2,3,2,3,2,4.83333333333333,0,3.11111111111111,3.77777777777778,60,2.33333333333333,20,4.09090909090909,1,6,5,5,4,4,7,6,5,5,6,6,6,6,5,1,5,4,1,4,2,3,2,2,3,3,2,2,1,1,1,2,6,1,2,2,3,10:58:04,2.4,2,8,4,5,3,4,4,5,1,1,2,3,3,3,5,5,5,4,3,29,6.33333333333333,3.36363636363636,4,4,4,4,4,3,2,2,2,4,4,4,3,4,4,4,3,4,4,4,2,2,3,1,2,4,1,2,1,2,5,2,3,3,2.38461538461538,1,1,4,1, ,4,4,5, ,8,5,3,3,1, ,2,8,1, , ,2,1, ,2,IEEE,Omim, , , ,12,9, , , ,7,6,7,6,6,6,6,6,2,3,2,4,5,4,5,3,5,5,4,1,5,5,3,2,4,5,5,5,5,5,5,5,3,3,2,4,4,5,3,4,5,5,4,5,5,4,2,4,5,2,3,5,5,3,4,4,5,5,4,3,2,5,3,2,5,5,2.92307692307692,4,3,3,2,3,3,3,4,3,3,3,4,1,3,35.6,36.6,2,36.1,1,9,3,2,1.02556649991577,-.472510450907164,METU
1988,3,4,1,3,4,1,4,3,3,3,2,2,2,2,4,1,2.16666666666667,0,4.77777777777778,3.77777777777778,66,1.22222222222222, ,2.81818181818182,1,3,1,1,5,6,2,2,3,2,2,2,1,1,1,1,3,2,1,2,2,1,1,1,1,1,1,1,1,1,1,1,1,1,1,2,2,10:57:55,2.2,2,0,4,5,5,4,5,5,5,5,5,4,4,6,6,2,4,4,2,26,5.83333333333333,3.27272727272727,5,4,5,5,5,1,1,1,2,2,5,4,4,4,4,4,2,4,4,4,1,4,4,4,5,4,3,2,3,3,4,5,5,3,3.76923076923077,2,2,1,1, ,4,4,4,4,6,3,6,4,1, ,1, ,3,1,8,1,1, ,1, , , , , , , , , , ,6,6,6,6,6,5,5,7,1,2,2,2,5,2,2,2,4,5,4,1,2,4,2,4,4,4,4,4,4,3,4,4,1,2,1,4,2,4,4,3,5,2,1,4,4,4,1,1,4,2,4,4,4,3,3,4,4,4,2,2,4,4,3,3,4,4,2.53846153846154,2,4,3,2,3,3,2,3,2,2,3,4,2,2,36.5,36.3,2,36.4,1,4,3,2,-1.55538152951815,-1.57647982244562,METU
1996,2,5,4,2,4,4,4,5,5,3,2,1,1,3,2,1,5,0,4.44444444444444,3.55555555555556,64,2.55555555555556,2,3.63636363636364,1,6,7,6,6,6,7,6,5,7,5,7,1,1,2,3,7,5,3,5,2,5,2,2,2,2,3,1,2,2,2,2,2,5,3,1,3,10:57:45,1.6,2,0,4,5,4,5,4,4,4,4,5,5,5,8,5,3,5,3,3,7,5,2.45454545454545,3,4,4,4,3,1,1,1,1,3,2,4,5,2,4,4,3,4,2,4,1,4,2,2,1,4,1,5,1,1,4,2,5,5,2.84615384615385,2,1,1,1, ,4,2,4,1,3,1,2,1,1, ,2,4,1, , ,1,1, ,1, , , , , , , , , , ,3,6,6,6,5,4,4,7,1,4,1,5,4,4,4,5,3,5,5,2,2,3,3,4,3,2,2,5,4,3,5,5,1,1,1,1,5,5,3,5,4,1,1,5,5,4,3,1,3,5,4,4,4,2,2,2,5,2,2,2,5,4,2,2,1,5,2.92307692307692,3,3,4,2,3,2,3,1,3,2,4,4,4,4,36,36.4,2,36.2,1,6,3,2,1.18687575175539,-.251716576599474,METU
1995,1,2,1,2,2,1,2,2,2,1,3,1,2,2,2,4,3.44444444444444,0,1.88888888888889,3.22222222222222,60,2.16666666666667,5,1.72727272727273,1,5,2,3,3,6,3,5,2,6,1,5,1,5,1,2,7,1,4,2,2,6,2,1,2,1,2,1,2,2,1,2,1,3,3,3,3,10:56:55,2.2,2,7,4,2,2,2,4,2,1,2,1,1,4,4,3,2,4,4,2,24,4.66666666666667,3,4,4,4,4,4,2,2,1,2,2,4,4,4,4,2,3,1,2,4,5,1,5,3,4,4,4,5,3,4,5,3,4,2,5,3.92307692307692,1,1,2,1, ,4,4,4,1,5,3,8,6,1, ,2,6,3,1,2,1,1, ,2,Sosyal Demokrasi Topluluğu,THBT, , , ,2,3, , , ,4,5,4,5,5,5,4,8,3,5,2,5,4,1,4,5,1,5,4,5,2,4,3,5,4,4,5,5,3,2,4,3,1,4,2,1,5,5,1,4,3,4,1,4,5,4,4,2,5,2,4,5,1,4,4,4,1,1,4,1,4,5,3,1,1,1,2.38461538461538,1,3,1,4,2,2,2,2,2,2,4,2,4,2,36.2,36.3,2,36.25,1,9,3,2,-.318677265414397,-.638105856637932,METU
1996,2,2,2,2,2,2,3,3,2,2,2,2,3,3,2,1,3.33333333333333, ,4.66666666666667,2.88888888888889,64,2.05555555555556,6,2.18181818181818,1,3,3,2,6,3,5,5,2,2,2,4,2,2,3,4,5,5,2,2,2,2,2,2,2,2,2,2,2,1,3,2,3,2,2,2,2,10:54:58,2.2,2,0,4,5,5,5,5,5,4,4,4,5,5,6,4,2,1,2,4,14,5,3.18181818181818,4,4,3,3,4,3,3,2,2,3,4,3,3,4,3,3,2,3,2,3,1,4,3,4,3,2,2,1,3,3,4,3,4,3,3,1,1,2,1, ,4,4,4,1,5,2,8,4,2,1,2,3,1, , ,1,1, ,1, , , , , , , , , , ,5,5,5,5,5,5,5,8,1,2,2,4,4,3,2,2,2,3,4,1,3,4,4,3,4,3,3,4,4,4,4,4,4,4,2,3,3,4,2,4,2,3,2,2,2,4,4,3,3,3,4,3,4,2,4,3,4,4,4,2,4,4,3,4,2,2,3,3,3,3,3,3,2,3,4,3,3,4,4,3,2,36.4,36.2,2,36.3,1,6,3,2,-.42621676664081,-.748502793791778,METU
1994,3,3,2,3,3,2,4,3,2,3,2,3,2,2,5,1,5.66666666666667,0,4.66666666666667,3.44444444444444,69,4.88888888888889,20,2.72727272727273,1,6,7,6,6,7,7,6,7,7,4,7,7,2,1,7,7,6,2,6,4,6,6,6,6,6,6,5,2,4,3,3,7,6,6,3,3,10:53:58,2.6,2,3,4,4,5,4,4,5,5,5,5,5,3,2,2,1,2,1,1,12,4.5,3.54545454545455,3,5,3,4,4,4,4,4,1,3,4,3,4,3,4,3,3,5,1,5,1,3,5,2,2,3,3,4,5,5,5,3,4,4,3.69230769230769,2,1,2,1, ,4,4,4,1,2,2,3,3,1, ,2,8,1, , ,1,1, ,1, , , , , , , , , , ,7,4,3,3,5,5,5,7,2,1,4,1,4,5,2,3,5,1,2,1,2,2,2,2,3,3,4,3,5,3,2,4,3,1,2,5,1,2,5,1,5,5,3,5,4,5,1,2,5,4,2,5,2,1,1,3,2,1,5,2,5,4,4,3,2,2,2.23076923076923,3,3,3,2,2,2,2,2,2,2,3,4,1,2,35.8,36.7,2,36.25,1,6,3,2,1.83211275911387,2.06661910363127,METU
1994,2,4,1,3,1,4,4,4,4,2,1,2,2,1,4,2,4.05555555555556,0,4.44444444444444,3.55555555555556,62,2.22222222222222, ,2.72727272727273,1,5,4,5,6,7,5,6,5,6,2,6,3,2,2,1,5,1,2,2,2,2,2,6,2,2,2,3,2,1,2,2,2,2,2,2,2,10:52:28,2.2,2,11,4,5,5,4,5,5,4,3,4,5,3,4,5,3,1,3,3,39,6,3.54545454545455,4,2,4,4,5,2,4,2,3,4,5,4,4,4,4,5,2,4,1,4,2,5,3,2,4,3,4,4,2,2,5,2,5,2,3.30769230769231,1,2,2,1, ,4,4,5, ,5,5,8,8,1, ,2,8,1, , ,1,2,8,2,Genç Girişimciler Topluluğu,Unifeb ODTÜ, , , ,7,5, , , ,6,5,6,6,7,6,5,7,4,4,1,4,5,2,4,5,2,4,2,1,5,5,4,2,5,5,5,5,4,4,5,4,1,2,1,4,1,5,5,2,4,4,2,5,5,4,2,1,4,4,5,5,5,2,4,2,4,5,5,1,4,4,5,4,2,1,1.84615384615385,2,1,2,4,2,1,3,1,2,2,2,2,1,1,36,36.2,2,36.1,1,5,3,2,.272789991330875,-.58290738806101,METU
1994,2,2,3,2,2,2,2,3,2,2,2,2,2,2,3,2,4.5, ,5,3.11111111111111,70,3.05555555555556, ,2.18181818181818,1,6,5,3,5,7,5,6,5,5,5,5,4,2,2,2,6,6,2,3,2,6,4,2,4,5,4,4,1,1,2,1,3,5,5,1,2,10:51:30,2.2,2, ,4,5,5,5,5,5,5,5,5,5,5,6,6,3,6,3,4,14,6.83333333333333,3.90909090909091,5,5,5,5,5,2,2,3,4,3,4,4,3,3,2,4,3,4,2,3,1,4,3,5,3,4,2,2,2,3,4,4,4,4,3.38461538461538,2,2,2,1, ,4,4,4,2,5,3,3,3,1, ,2,5,1, , ,1,1, ,1, , , , , , , , , , ,6,7,7,7,7,7,7,7,2,2,2,4,4,4,4,3,3,4,4,1,4,4,4,4,4,5,5,5,5,4,5,5,2,2,2,2,3,4,4,3,2,4,2,4,4,4,2,3,3,4,4,4,5,3,4,4,4,5,5,2,5,5,4,4,2,3,2.53846153846154,2,4,3,2,2,2,2,3,2,2,4,3,3,2,36.8,36.9,2,36.85,1,3,3,2,.702947996236528,.245069640592829,METU
1983,2,2,2,2,2,3,3,2,2,2,2,2,1,2,2,2,3.22222222222222,0,5,2.77777777777778,0,2.38888888888889, ,2.18181818181818,1,6,5,1,5,5,3,3,2,3,2,3,2,1,2,5,5,4,1,6,2,2,2,6,1,2,2,2,2,2,2,2,2,2,2,2,2,10:45:40,1.8,2,0,4,5,5,5,5,5,5,5,5,5,5,4,5,1,4,1,1,27,5,3.27272727272727,5,3,5,4,5,1,1,1,4,2,5,3,3,2,3,3,2,3,3,3,1,3,4,3,3,3,3,2,2,4,4,3,4,3,3.15384615384615,2,2,1,1, ,2,2,4,4,7,7,3,3,1, ,2,8,3,1,8,1,1, ,1, , , , , , , , , , ,6,5,5,5,5,4,4,8,2,2,2,3,4,3,2,4,2,4,4,2,2,4,4,4,2,4,3,5,5,3,5,5,1,1,1,3,3,4,4,2,4,3,2,2,3,2,1,4,4,4,3,4,4,3,4,4,5,5,5,1,5,5,5,3,4,3,3,3,3,4,3,3,3,3,2,3,3,4,4,2,3,35,36.4,2,35.7,1,3,3,2,-.533756267867223,-.417311982330242,METU
1990,3,4,4,4,4,4,4,3,2,3,3,4,4,2,4,3,4.77777777777778, ,4.22222222222222,1.66666666666667,78,4.55555555555556, ,3.45454545454545,1,6,4,3,6,6,6,6,7,5,2,5,6,6,4,1,6,5,2,4,6,3,6,6,6,3,6,6,3,4,4,3,6,5,5,2,4,10:44:09,3.4,2, ,4,5,4,4,4,4,4,5,4,4,5,6,6,3,2,2,4,7,6.5,2.18181818181818,3,2,2,2,3,2,2,2,2,2,2,2,1,1,2,2,1,2,2,2,2,2,2,2,3,2,2,3,1,2,2,2,3,4,2.30769230769231,1,2,2,1, ,2,2,4,1,1, ,5,2,1, ,2,2,1, , ,1,1, ,1, , , , , , , , , , ,7,6,6,6,7,7,6,6,0,4,2,5,4,3,4,3,2,5,5,4,2,4,5,4,3,4,2,4,4,3,4,3,2,3,2,2,4,2,3,3,2,4,2,2,4,4,4,2,4,2,4,4,4,3,4,3,3,2,5,2,4,4,4,4,3,4,3.69230769230769,4,4,4,4,3,3,4,4,4,3,3,4,4,4,35.6,35.7,2,35.65,1,8,3,2,.97179674930256,1.73542829216974,METU
1989,1,1,1,2,1,2,1,1,1,1,1,2,1,2,1,2,2.16666666666667,0,3.88888888888889,3,52,2.44444444444444, ,1.18181818181818,1,6,2,1,2,3,1,2,2,5,1,5,1,1,1,1,3,1,1,2,3,2,2,1,5,3,2,2,2,3,2,2,3,3,2,2,3,10:42:24,1.6,2,0,4,4,4,4,4,4,4,3,4,4,5,8,5,1,2,1,1,37,3,3.36363636363636,5,2,5,5,5,2,2,2,2,2,5,4,4,4,4,4,1,4,1,1,1,4,5,4,5,5,2,5,2,3,5,5,5,2,4,2,2,1,1, ,4,4,4,2,1, ,7,5,1, ,2,8,2,1,8,8,2,8,1, , , , , , , , , , ,3,3,3,3,3,3,3,8,5,2,2,4,4,4,2,4,4,5,5,1,4,4,2,2,4,5,5,5,5,5,5,5,1,1,1,1,2,4,4,1,4,4,2,4,3,5,2,2,4,2,4,2,2,1,2,2,5,5,5,1,5,4,5,4,1,2,2.61538461538462,3,3,2,2,2,3,2,4,2,2,3,2,3,3,36.8,36.7,2,36.75,1,8,3,2,-1.55538152951815,-.362113513753319,METU
1988,1,1,1,1,1,2,2,2,1,2,2,3,3,1,3,3,2.16666666666667,0,4.77777777777778,3.11111111111111,60,1.27777777777778, ,1.45454545454545,1,5,3,1,1,5,2,2,1,3,1,3,1,2,1,2,3,2,1,1,1,2,1,1,1,1,1,2,1,1,2,1,2,1,2,1,1,10:40:17,2.6,2,0,4,5,5,5,5,5,4,4,5,5,4,4,4,4,3,4,3,31,3.83333333333333,2.81818181818182,4,3,4,4,4,1,1,2,3,1,4,3,3,3,3,4,3,4,1,4,1,5,5,3,5,4,3,2,3,4,4,5,4,4,3.92307692307692,2,2,1,1, ,4,4,4,4,8,4,8,8,1, ,2,8,3,1,8,1,1, ,1, , , , , , , , , , ,3,5,4,4,4,3,4,8,3,3,2,4,4,2,4,2,2,4,3,3,5,5,3,3,5,5,5,5,5,4,5,5,1,1,2,2,4,4,3,3,4,4,1,4,5,4,4,2,3,3,5,3,4,2,4,3,4,3,4,1,5,5,3,3,3,3,2.46153846153846,2,3,3,2,3,4,2,3,2,2,2,4,2,2,36.4,36.6,2,36.5,1,9,3,2,-1.55538152951815,-1.52128135386869,METU
1995,3,4,4,4,4,3,4,2,3,3,4,2,2,1,3,2,4.72222222222222,0,4.77777777777778,3.22222222222222,71,2.88888888888889, ,3.45454545454545,1,6,5,3,7,7,7,4,7,6,2,4,5,6,2,2,6,4,2,2,2,4,2,2,4,7,6,4,2,2,1,1,6,2,2,1,2,10:39:06,2,2,1,4,4,5,4,5,5,5,5,5,5,2,2,5,2,2,2,2,12,5,2.45454545454545,5,2,3,4,4,1,1,1,1,1,4,4,4,3,3,2,3,4,3,3,2,2,3,3,3,4,2,2,2,2,4,2,3,4,2.76923076923077,2,2,2,1, ,4,4,5, ,3,2,4,3,1, ,2,8,1, , ,2,1, ,1, , , , , , , , , , ,4,5,5,5,6,5,5,6,2,2,2,2,5,5,1,2,5,4,4,1,3,4,4,3,5,5,5,4,4,4,4,3,1,1,1,2,2,4,5,2,4,3,3,5,4,3,4,2,4,3,4,3,5,2,4,2,5,5,5,2,5,5,4,4,2,4,2.84615384615385,3,3,3,3,2,2,3,3,4,3,3,4,3,2,36.8,36.7,2,36.75,1,8,3,2,.918026998689354,.0794742348620613,METU
1995,2,3,1,3,2,2,4,2,2,2,2,2,2,2,3,2,3.94444444444444,0,3.77777777777778,2.88888888888889,56,2.88888888888889,8,2.27272727272727,1,5,3,4,4,4,5,3,4,3,4,3,3,4,5,5,6,3,3,2,3,3,3,3,2,3,3,3,3,2,5,2,3,3,3,2,4,10:38:43,2.2,2,0,4,4,4,4,4,4,4,3,3,4,4,6,3,2,4,4,1,33,5,2.72727272727273,4,3,4,4,3,2,2,2,2,2,2,3,3,4,3,3,2,4,2,2,2,4,2,4,3,4,2,2,2,2,3,3,3,4,2.92307692307692,1,1,2,1, ,4,4,5, ,6,3,6,5,1, ,2,6,1, , ,2,1, ,2,fotoğrafçılık,bostan,samsun tayfa,yüzyıl tayfa, ,12,4,1,6, ,4,5,5,4,6,6,5,6,3,4,2,4,4,2,4,3,3,4,3,2,3,4,3,3,4,4,4,4,4,4,4,4,2,2,3,2,2,3,3,2,4,3,3,2,3,2,4,2,2,2,4,4,3,2,3,2,4,4,4,2,3,3,4,2,3,2,2.76923076923077,3,3,3,3,3,3,3,2,3,3,2,4,2,3,35.9,36.2,2,36.05,1,4,3,2,.165250490104462,.0794742348620613,METU
1993,2,2,4,2,1,4,1,4,2,4,4,2,4,4,4,2,5.16666666666667,1,4.55555555555556,3.88888888888889,71,2.94444444444444, ,2.72727272727273,1,6,5,4,7,7,6,6,6,6,3,6,5,4,2,2,6,6,6,5,3,5,2,5,4,5,2,2,2,1,3,2,2,3,3,2,2,10:37:50,3.2,2,2,4,5,5,4,5,5,4,5,4,4,3,3,5,1,2,2,2,24,2.83333333333333,3.72727272727273,5,4,5,4,4,1,4,4,1,4,5,4,4,4,4,4,4,5,2,4,2,5,4,5,2,4,2,1,2,5,4,3,5,4,3.53846153846154,2,2,2,1, ,4,4,5, ,7,5,5,5,1, ,2,5,3,1,2,3,2,3,1, , , , , , , , , , ,3,4,2,3,3,2,4,8,3,2,2,4,4,4,3,2,4,5,4,1,2,4,4,3,4,4,4,5,5,4,4,4,4,4,4,2,1,4,4,2,2,2,4,4,3,4,3,1,4,3,5,3,2,2,5,4,5,5,4,1,4,5,2,2,2,2,2.76923076923077,2,3,3,3,3,2,3,3,3,3,3,3,2,3,35.5,36.6,2,36.05,1,8,3,2,1.34818500359501,.134672703438984,METU
1989,4,2,2,2,2,2,4,2,3,2,4,2,4,1,3,1,3.38888888888889, ,5,1.44444444444444,52,2.16666666666667, ,2.63636363636364,1,6,2,1,5,6,5,6,2,2,4,2,5,2,4,1,6,1,1,2,2,3,2,2,2,2,3,2,1,2,2,2,2,3,3,2,2,10:36:53,2.2,2, ,4,5,5,5,5,5,5,5,5,5,4,4,5,2,2,1,1,20,3.5,2.54545454545455,4,3,4,4,4,1,1,1,1,1,4,2,2,2,1,1,1,2,1,1,1,4,4,4,3,4,3,2,3,5,5,3,3,4,3.61538461538462,2,2,2,1, ,4,4,4,1,5,1,6,3,1, ,1, ,3,1,8,1,1, ,1, , , , , , , , , , ,3,4,4,3,4,3,3,7,1,1,4,5,5,5,5,5,5,4,2,1,5,4,2,2,5,5,5,5,5,5,5,5,1,3,1,2,5,2,4,4,5,5,2,2,4,5,2,1,3,5,5,3,5,1,5,2,4,5,5,4,4,2,4,2,2,4,2.53846153846154,4,3,4,1,2,1,2,3,3,1,4,3,3,2,36.1,36.4,2,36.25,1,3,3,2,-.372447016027604,-.638105856637932,METU
1995,2,2,2,2,2,2,2,2,3,1,2,2,4,2,3,2,2.27777777777778,4,5,3.66666666666667,69,2.11111111111111, ,2,1,6,1,1,2,6,2,1,2,1,1,5,1,1,1,1,5,3,1,2,2,2,2,5,1,2,2,2,2,1,6,1,2,2,2,1,1,10:36:43,2.6,2,10,4,5,5,5,5,5,5,5,5,5,4,5,5,2,4,2,1,29,5.33333333333333,3.45454545454545,4,4,4,4,4,2,2,2,4,4,4,2,4,4,4,4,3,4,4,4,1,5,3,4,2,3,2,3,2,4,5,2,3,4,3.23076923076923,2,2,2,1, ,4,4,4,1,8,8,8,7,1, ,2,6,1, , ,8,1, ,1, , , , , , , , , , ,5,6,6,6,5,4,4,7,4,4,1,4,4,2,4,3,2,5,4,2,3,4,4,2,4,4,4,5,5,4,5,5,1,1,4,2,4,4,4,4,2,2,3,4,4,5,2,2,4,3,4,4,4,2,4,2,4,4,4,2,4,4,4,3,4,2,2.23076923076923,2,2,3,2,2,2,2,2,2,2,3,4,2,3,36.2,36.3,2,36.25,1,6,3,2,-1.44784202829174,-.693304325214855,METU
1993,2,2,2,3,3,3,4,4,4,3,2,2,3,4,4,4,4.05555555555556, ,3.88888888888889,3,49,2.27777777777778,10,2.90909090909091,1,7,5,2,5,7,5,6,4,6,2,5,1,4,2,2,6,2,2,3,2,4,2,2,2,1,2,2,2,2,4,3,2,2,2,1,3,10:34:46,3.4,2, ,4,4,3,4,5,4,4,4,3,4,4,7,7,4,5,6,6,20,5.66666666666667,2.63636363636364,4,2,4,3,3,2,2,2,2,2,3,3,3,4,3,4,2,3,3,2,2,2,3,4,2,3,1,2,1,3,3,2,3,3,2.46153846153846,2,1,2,1, ,4,4,5, ,4,1,8,7,1, ,2,8,1, , ,3,2,4,1, , , , , , , , , , ,5,7,6,6,5,5,6,7,3,4,3,4,4,2,3,3,3,5,4,2,4,4,4,2,5,5,5,4,5,5,5,5,2,2,1,2,4,5,5,5,3,4,2,3,4,3,5,4,2,3,5,1,5,3,5,2,5,5,5,3,3,3,3,2,2,4,2.76923076923077,3,3,3,2,3,2,3,3,2,2,3,4,3,4,36.7,36.9,2,36.8,1,6,3,2,.272789991330875,-.527708919484087,METU
1994,3,2,1,2,2,1,2,3,1,1,2,1,2,2,3,2,4.22222222222222,4,3.55555555555556,2.77777777777778,74,3.33333333333333,4,1.81818181818182,1,5,4,4,5,4,5,4,5,6,4,7,3,4,1,4,7,2,2,2,3,4,4,4,4,4,4,4,2,3,3,2,4,4,4,2,3,10:32:48,2,2,6,4,3,4,4,3,4,3,3,4,4,5,8,7,3,7,6,6,31,5.5,2.36363636363636,1,3,3,3,3,1,3,2,2,4,1,2,3,1,3,4,3,3,2,4,2,4,3,4,2,3,2,1,4,2,3,2,3,3,2.76923076923077,2,1,2,1, ,4,4,5, ,4,4,6,6,1, ,2,4,1, , ,1,2,8,2,Thbt, , , , ,20, , , , ,7,5,5,6,5,5,5,7,3,3,1,4,4,2,4,4,1,5,4,3,3,4,4,4,3,4,4,3,3,4,3,3,3,3,3,1,4,5,3,4,4,3,2,1,3,3,3,3,3,3,4,3,4,2,3,3,3,4,4,3,3,3,3,3,3,3,3.07692307692308,3,4,3,3,3,2,3,3,3,3,3,4,4,3,36.2,36.6,2,36.4,1,12,3,2,.434099243170495,.521061983477442,METU
1995,2,2,1,2,2,2,2,2,4,4,1,2,1,3,5,1,3.11111111111111,0,5,3.77777777777778,64,1.88888888888889, ,2.18181818181818,1,5,1,1,5,6,2,2,2,1,2,6,1,3,2,5,6,5,1,2,2,2,2,2,2,2,2,2,2,1,2,2,2,2,2,2,1,10:32:38,2.4,2,11,4,5,5,5,5,5,5,5,5,5,5,5,5,1,6,3,3,20,5.33333333333333,3.36363636363636,5,5,4,4,5,1,4,2,1,2,4,5,4,3,4,4,2,5,2,5,1,2,1,5,3,4,1,2,1,1,3,2,2,3,2.30769230769231,2,2,2,1, ,4,4,4,1,8,3,8,8,1, ,2,7,1, , ,3,1, ,1, , , , , , , , , , ,5,7,6,6,5,3,3,7,3,1,4,2,4,5,5,2,5,2,2,1,2,5,3,1,5,4,4,5,5,3,5,5,5,4,2,5,1,2,4,2,5,5,3,2,2,2,2,2,4,2,4,2,5,1,4,2,5,3,5,1,4,4,3,4,1,4,2.61538461538462,3,2,2,3,3,1,2,2,2,3,4,2,5,2,36.3,36.5,2,36.4,1,6,3,2,-.641295769093637,-.914098199522545,METU
1994,5,5,2,4,5,4,5,4,2,4,5,1,5,2,4,1,3.94444444444444, ,4.88888888888889,4.55555555555556,58,2.66666666666667, ,4.09090909090909,1,5,2,3,6,6,3,6,2,1,4,2,6,4,2,2,7,5,5,5,2,2,3,6,2,3,2,2,2,2,2,2,3,1,2,2,5,10:32:20,2.6,2, ,4,5,4,5,5,5,5,5,5,5,2,2,2,1,2,2,1,59,4.66666666666667,3.27272727272727,4,3,3,4,4,4,3,2,4,2,3,5,5,5,5,5,4,4,4,4,1,2,4,2,2,3,2,4,2,1,3,2,4,2,2.53846153846154,1,2,2,1, ,4,4,4,4,5,2,7,4,1, ,2,8,1, , ,1,2,8,2,biyogen,evrim ağacı,AGT,ART,Lab toplantıları,7,7,7,7,7,3,6,5,4,5,5,5,9,3,3,2,5,3,2,4,5,1,5,5,5,5,5,2,3,4,3,3,4,3,3,5,5,2,2,3,2,5,5,3,5,2,4,4,4,4,5,2,1,5,4,4,4,4,4,5,3,5,5,5,2,2,4,5,3,2,3,3.23076923076923,4,3,4,2,2,4,4,4,2,4,3,5,1,5,36,36.3,2,36.15,1,7,3,2,.165250490104462,-.141319639445629,METU
1994,2,2,2,2,2,2,1,2,4,2,1,1,2,4,2,2,2.16666666666667,0,5,1.66666666666667,49,2.05555555555556,20,2,1,2,2,2,2,6,2,2,2,2,2,2,2,2,2,2,2,2,1,2,2,6,1,2,1,2,2,1,2,2,2,2,2,2,2,2,2,10:30:41,2.2,2,12,4,5,5,5,5,5,5,5,5,5,4,4,6,1,1,1,2,36,4.5,2.09090909090909,2,2,2,4,2,2,2,2,2,2,1,2,1,1,2,2,2,1,2,2,1,2,4,2,1,3,4,1,2,4,4,2,1,1,2.38461538461538,1,1,1,1, ,4,4,4,1,8,6,4,4,1, ,2,8,1, , ,5,2,8,2,MetuBiz, , , , ,7, , , , ,5,4,5,4,5,4,4,8,4,2,2,2,5,4,4,2,2,5,5,1,4,4,2,1,5,4,4,4,5,4,4,5,1,1,5,3,4,4,4,3,2,2,1,1,4,1,5,4,2,3,5,3,4,1,4,2,4,4,4,2,4,4,4,4,5,2,2.15384615384615,2,1,3,2,2,2,2,2,4,2,2,4,3,1,36.4,36.7,2,36.55,1,6,3,2,-1.55538152951815,-.748502793791778,METU
1985,2,2,1,2,2,2,4,4,1,2,2,2,2,2,2,2,4.83333333333333,0,4.11111111111111,2.22222222222222,71,3.72222222222222,20,2.18181818181818,1,6,6,3,5,3,7,3,3,4,5,6,5,3,2,7,7,7,5,3,3,5,5,3,3,3,5,3,3,5,3,2,5,3,3,5,5,10:27:15,2,2,0,4,5,4,5,4,3,5,3,4,4,4,6,4,2,4,2,3,18,3.5,3.27272727272727,4,4,4,4,3,2,2,2,4,3,4,2,2,2,2,4,2,2,2,2,1,2,4,3,2,3,3,4,2,2,3,2,4,2,2.76923076923077,2,1,1,1, ,4,4,4,2,1, ,5,4,1, ,2,4,3,1,5,1,1, ,1, , , , , , , , , , ,3,4,3,3,4,4,3,7,1,2,2,4,4,2,2,2,2,4,4,2,2,4,4,4,2,2,2,2,2,2,2,2,2,2,2,2,2,4,4,2,2,2,2,4,4,2,2,4,2,2,4,4,4,2,4,2,4,4,4,2,4,2,4,2,4,4,3.07692307692308,3,3,3,4,3,3,3,3,3,3,4,5,2,3,36.7,37.2,2,36.95,1,7,3,2,1.02556649991577,.9074512635159,METU
1994,3,2,2,4,2,2,1,3,1,3,2,3,3,4,3,4,2.61111111111111,0,4.55555555555556,2.66666666666667,71,2.11111111111111, ,2.27272727272727,1,5,2,2,2,4,2,4,3,2,2,2,4,2,2,2,3,3,1,1,2,2,2,6,2,2,2,2,2,2,2,1,2,2,2,2,2,10:27:00,3.4,2,2,4,5,5,5,5,5,4,4,4,4,3,3,3,1,2,2,2,18,4.66666666666667,3.18181818181818,4,4,4,4,4,2,2,2,3,3,3,2,3,4,3,3,2,2,1,4,1,4,5,4,4,4,3,4,4,4,4,4,5,4,4.07692307692308,1,2,2,1, ,4,4,5, ,6,6,8,4,1, ,2,8,1, , ,1,1, ,2,odtü tenis topluluğu, , , , ,2, , , , ,5,5,4,5,4,5,6,6,2,2,2,2,5,4,4,4,4,4,3,3,4,4,4,3,4,5,4,4,5,4,4,4,2,4,2,4,2,4,4,2,3,1,4,4,5,4,2,2,4,3,4,4,1,2,3,3,4,4,4,4,4,2,2,3,2,2,2.61538461538462,2,3,3,2,3,2,3,2,3,3,3,4,3,2,36,36.4,2,36.2,1,8,3,2,-1.1252235246125,-.693304325214855,METU
1994,3,2,3,2,2,4,2,2,4,2,2,2,1,3,2,2,4.61111111111111,6,3.55555555555556,3.77777777777778,64,2.5, ,2.54545454545455,1,7,5,6,7,6,7,6,5,6,5,6,2,2,1,2,7,2,1,1,2,5,3,2,2,5,2,1,2,1,2,1,2,5,5,2,2,10:25:38,2,2,0,4,4,4,4,4,4,4,2,3,3,5,6,5,1,4,4,1,13,5.5,3.72727272727273,5,5,5,5,5,1,2,2,3,3,5,3,4,4,4,5,3,4,2,5,1,5,3,5,2,4,1,3,1,2,2,3,4,3,2.92307692307692,2,2,2,1, ,4,4,2,1,5,4,3,2,1, ,2,8,1, , ,1,1, ,1, , , , , , , , , , ,6,5,5,5,6,6,6,7,2,1,1,5,5,4,5,3,4,5,4,1,4,4,4,5,3,5,4,5,3,3,4,4,1,4,1,2,3,4,4,3,4,4,2,4,4,2,3,2,4,4,4,3,3,1,4,2,5,4,4,2,5,4,2,4,1,4,3.38461538461538,3,4,4,3,3,3,3,4,3,3,5,5,2,4,35.7,36.7,2,36.2,1,2,3,2,.81048749746294,-.306915045176397,METU
1996,1,3,1,3,2,4,4,2,3,4,3,1,1,3,2,1,5.11111111111111,0,4,3.88888888888889,64,3.5,2,2.72727272727273,1,6,6,6,6,6,6,6,6,6,5,6,5,4,2,1,6,5,4,2,3,6,6,5,2,2,4,3,2,2,2,2,4,6,6,2,4,10:24:44,1.6,2,0,4,4,4,4,4,4,4,4,4,4,4,7,5,1,3,5,2,28,6,4,5,3,5,5,5,4,3,3,4,2,5,4,4,5,3,4,4,4,3,4,2,5,5,5,5,5,4,3,4,3,5,5,5,5,4.53846153846154,2,1,2,1, ,4,4,5, ,6,5,7,7,2,1,2,8,1, , ,1,1, ,2,öğrenci topluluğu,öğrenci topluluğu, , , ,4,5, , , ,7,6,7,7,5,4,5,7,3,2,2,3,5,4,4,3,5,4,4,1,2,4,4,2,4,4,4,4,4,4,4,4,3,3,3,2,4,4,3,4,4,5,4,4,3,5,4,1,4,4,3,3,4,2,4,3,5,5,5,2,4,4,5,4,3,5,3.30769230769231,3,4,5,3,2,3,3,4,3,3,4,4,2,4,36.3,36.6,2,36.45,1,6,3,2,1.2944152529818,.68665738920821,METU
1984,2,2,3,2,2,3,2,2,2,3,2,1,2,2,2,3,3.61111111111111,0,4.22222222222222,2.66666666666667,56,1.44444444444444,5,2.27272727272727,1,5,2,2,5,5,5,5,2,5,1,6,2,2,4,1,6,5,2,2,2,1,1,1,2,2,1,2,1,1,1,1,2,1,1,2,2,10:24:09,2,2,0,4,5,5,5,5,5,3,2,5,3,5,7,7,1,6,6,2,46,5.83333333333333,2.72727272727273,4,2,3,4,4,2,2,2,2,1,4,2,3,3,3,4,3,2,2,2,1,4,5,4,4,2,4,4,4,4,5,4,3,3,3.84615384615385,2,1,1,2,2,4,4,2,2,6,4,5,5,1, ,2,5,3,1,8,4,2,8,2,Alternatif Anne, , , , ,7, , , , ,6,6,6,6,6,5,6,10,4,1,2,5,5,4,3,2,4,4,4,2,4,4,4,2,4,4,4,5,4,4,5,4,2,3,1,3,1,4,5,2,5,5,3,5,4,4,3,2,3,3,4,3,4,2,5,4,4,3,4,2,4,5,3,3,3,3,2.53846153846154,3,3,3,2,2,2,3,3,2,2,3,5,2,3,36.7,36.4,2,36.55,1,4,3,2,-.157368013574777,-1.35568594813793,METU
1995,2,4,2,4,4,2,2,2,4,2,2,3,3,2,2,4,2.11111111111111,3,2.44444444444444,2.77777777777778,70,2.16666666666667,15,2.72727272727273,1,2,1,1,1,6,2,1,1,1,4,7,2,1,1,1,4,1,1,3,1,1,4,5,1,1,4,2,2,2,3,1,2,2,2,1,2,10:23:56,2.8,2,3,4,4,1,4,3,2,2,2,2,2,4,6,7,6,6,6,5,27,2.33333333333333,2.09090909090909,3,4,2,3,2,2,1,1,1,2,2,4,4,2,3,4,2,2,2,2,2,1,2,5,2,2,1,1,1,2,2,2,2,2,1.92307692307692,1,1,3,1, ,4,4,5, ,7,5,8,8,1, ,2,4,1, , ,1,2,3,2,agt,ünifeb, , , ,2,3, , , ,4,2,2,2,2,2,2,7,2,4,2,5,4,1,5,5,1,4,4,2,4,3,5,4,5,5,4,4,2,3,3,3,2,2,2,2,4,5,4,4,2,5,1,1,2,2,2,3,4,4,4,4,4,4,2,2,4,5,4,2,3,3,2,2,1,4,3.61538461538462,4,4,3,4,4,3,4,4,4,5,4,4,3,1,36.4,36.5,2,36.45,1,3,3,2,-1.60915128013136,-.638105856637932,METU
1991,2,2,3,2,2,2,2,2,3,2,2,2,2,2,4,2,5,0,4.11111111111111,3.33333333333333,78,2.83333333333333, ,2.18181818181818,1,6,2,6,6,6,7,5,2,7,4,6,5,4,6,5,4,5,4,2,2,6,3,6,3,2,1,2,2,3,4,3,2,3,3,1,3,10:19:21,2.4,2,0,4,4,4,4,5,4,4,4,4,4,3,2,3,1,1,3,3,10,7,3.27272727272727,3,4,3,3,4,4,4,1,3,4,3,4,4,4,4,4,1,4,1,4,2,3,4,4,3,4,2,4,5,4,5,4,4,5,3.92307692307692,1,2,2,1, ,4,2,5, ,3,3,2,2,2,1,2,6,1, , ,1,1, ,1, , , , , , , , , , ,7,7,7,7,7,7,7,7,2,1,1,5,5,1,5,5,4,5,4,2,2,5,2,4,4,4,4,4,4,4,4,4,1,1,1,1,4,4,2,2,4,4,1,2,4,4,3,1,2,3,4,4,3,3,4,4,3,3,4,4,2,4,4,3,3,3,2.53846153846154,3,3,3,2,2,2,2,3,3,1,3,3,2,4,35.8,36,2,35.9,1,8,3,2,1.18687575175539,.0242757662851389,METU
1996,2,2,2,3,2,2,4,1,5,2,2,2,2,2,3,2,2.44444444444444,0,4.77777777777778,3,70,2.22222222222222, ,2.45454545454545,1,1,1,2,2,7,5,2,2,2,2,2,3,1,2,1,6,2,1,5,1,2,3,3,2,2,3,3,2,1,1,2,2,2,2,2,2,10:17:55,2.2,2,2,4,5,5,5,5,5,5,3,5,5,2,4,4,2,1,4,1,38,7,2.27272727272727,2,3,2,3,3,2,2,2,2,2,2,3,3,3,4,3,2,4,2,3,1,3,2,4,3,5,2,4,4,2,5,3,5,5,3.61538461538462,1,2,1,1, ,4,4,3,1,8,3,8,8,1, ,2,8,1, , ,8,1, ,2,Siyasi,Siyasi,Eğlence, , ,7,4,2, , ,7,7,7,7,7,7,7,7,4,4,2,5,4,3,2,2,4,4,4,3,3,5,3,2,5,4,4,4,4,4,4,4,3,3,3,2,4,4,2,5,1,5,3,4,4,4,3,2,4,3,5,2,3,3,4,3,4,4,4,4,2,4,4,4,2,4,2.38461538461538,2,4,3,3,1,2,2,3,2,2,4,4,1,2,36.7,36.8,2,36.75,1,3,3,2,-1.28653277645212,-.58290738806101,METU
1993,4,2,1,2,4,1,1,4,3,2,1,2,4,3,4,4,4.16666666666667,0,4.11111111111111,3.33333333333333,70,3.61111111111111,21,2.27272727272727,1,5,2,2,3,6,6,7,5,6,5,4,6,5,5,1,4,1,2,2,2,7,3,3,2,2,5,4,5,3,7,5,2,5,3,2,3,10:17:50,3.4,2,2,4,4,4,4,5,5,3,4,4,4,3,2,2,2,1,1,2,14,6,3.27272727272727,4,4,4,4,4,1,5,1,4,1,4,4,2,4,4,4,5,2,1,4,2,2,3,5,2,5,2,1,4,1,3,2,3,2,2.69230769230769,1,1,2,1, ,4,4,4,1,4,2,8,5,1, ,2,8,1, , ,1,1, ,1, , , , , , , , , , ,6,6,5,7,7,5,5,7,3,3,3,2,4,2,2,4,2,5,5,2,3,4,3,4,3,2,2,4,4,2,2,2,4,3,2,1,5,5,2,4,4,5,4,5,4,3,3,4,4,3,4,5,2,3,4,2,4,4,4,2,2,3,2,2,3,1,3.15384615384615,5,4,3,3,3,4,2,2,3,3,4,4,2,3,35.7,36,2,35.85,1,3,3,2,.380329492557288,.797054326362055,METU
1976,1,1,1,1,1,2,1,2,2,1,2,2,2,4,4,4,3, ,4.77777777777778,3.11111111111111,55,2, ,1.36363636363636,1,6,2,2,2,6,2,2,2,6,2,4,2,2,2,2,6,2,2,2,2,2,2,2,2,2,2,2,2,2,2,2,2,2,2,2,2,10:15:27,3.2,2, ,4,5,5,5,5,5,4,4,5,5,5,7,4,1,3,2,2,36,1.83333333333333,3.36363636363636,4,4,4,3,4,2,3,3,3,3,4,4,4,3,4,4,2,2,2,3,1,5,5,5,4,5,5,4,5,5,5,5,5,5,4.84615384615385,2,2,1,3,8,4,4,1, ,5,3,3,3,1, ,1, ,3,8,8,1,1, ,1, , , , , , , , , , ,1,2,2,2,2,2,2,7,1,2,2,4,5,4,2,2,4,4,3,2,2,2,4,4,2,2,2,4,4,3,4,4,2,2,2,4,2,2,2,3,3,4,2,3,4,5,1,2,1,5,2,4,2,2,4,3,2,2,4,3,4,2,3,3,4,3,2.53846153846154,2,3,3,2,3,2,2,3,3,2,3,3,2,3,35.9,36.8,2,36.35,1,0,3,2,-.74883527032005,-.8037012623687,METU
1987,1,2,1,2,1,2,2,2,4,1,1,2,2,4,3,5,2.83333333333333,1,4.66666666666667,3.55555555555556,66,3.33333333333333, ,1.72727272727273,1,2,2,2,2,7,6,2,2,2,1,5,2,1,1,4,4,5,1,2,2,5,5,5,2,4,5,5,2,1,4,2,5,2,2,3,4,10:11:57,3.2,2,0,4,5,5,5,5,5,4,3,5,5,4,4,6,1,2,2,1,30,6,3.09090909090909,4,4,4,4,4,1,2,2,2,2,5,4,4,4,2,4,4,4,2,4,2,4,4,5,3,4,3,4,2,4,4,3,5,4,3.76923076923077,2,2,2,1, ,4,4,5, ,8,5,6,4,1, ,2,8,2,1,8,7,1, ,1, , , , , , , , , , ,6,6,6,7,6,5,5,7,3,2,2,2,5,4,3,2,4,4,4,1,2,4,4,4,4,4,4,4,4,4,4,4,1,1,1,3,1,4,4,3,4,4,2,5,4,4,2,2,4,3,4,4,4,1,4,3,4,4,5,2,5,5,5,4,4,4,2.53846153846154,2,3,3,2,2,2,2,3,3,3,3,3,2,3,36.7,36.7,2,36.7,1,4,3,2,-.910144522159669,.521061983477442,METU
1996,3,3,2,3,2,3,4,3,2,2,2,3,2,2,2,2,3.44444444444444, ,3.77777777777778,3.44444444444444,69,3.38888888888889, ,2.63636363636364,1,5,2,3,6,6,4,3,4,3,3,3,3,3,2,2,6,3,1,3,2,3,3,5,4,5,3,4,2,2,6,2,5,3,3,2,4,10:09:03,2.2,2, ,4,4,4,4,4,5,4,3,3,3,5,7,6,4,6,6,5,14,4.66666666666667,4,4,4,4,4,5,4,4,3,4,4,4,4,4,3,4,4,4,2,2,4,2,4,3,4,3,4,3,2,2,3,4,3,3,3,3.15384615384615,2,2,2,1, ,4,4,5, ,7,3,8,5,1, ,2,5,1, , ,1,1, ,1, , , , , , , , , , ,7,4,4,4,5,4,4,6,3,3,3,3,4,3,2,3,4,4,3,2,3,4,3,3,3,3,4,4,4,4,5,4,2,2,2,3,2,4,4,3,4,4,3,5,3,3,2,3,4,3,4,3,3,2,4,3,4,3,5,3,3,3,4,3,2,4,2.61538461538462,3,3,3,3,2,3,2,2,3,2,3,3,3,2,36.2,36.3,2,36.25,1,6,3,2,-.318677265414397,.576260452054365,METU
1991,1,3,1,2,2,4,1,1,2,1,1,2,1,2,3,3,1.61111111111111,8,3.66666666666667,2.22222222222222,69,1.5, ,1.72727272727273,1,3,1,1,1,5,1,1,1,2,1,3,1,1,1,2,1,2,1,1,2,1,2,1,1,2,1,1,2,2,2,1,1,2,2,2,1,10:08:46,2.2,2,18,4,4,4,4,3,4,4,4,2,4,3,4,2,2,1,4,2,18,4.16666666666667,2,4,1,4,4,2,1,1,1,1,1,2,1,5,1,5,4,1,1,1,1,1,4,3,4,4,4,3,2,2,4,3,5,4,2,3.38461538461538,1,2,2,1, ,4,4,4,4,8,5,8,3,1, ,2,8,1, , ,1,1, ,1, , , , , , , , , , ,5,4,5,4,4,3,4,7,2,1,1,4,4,3,3,1,3,5,1,1,3,4,4,1,4,3,4,4,4,4,4,4,2,2,2,4,3,4,4,4,1,4,1,4,4,4,2,2,2,1,5,1,1,1,3,2,3,2,2,2,3,2,2,2,4,2,2.30769230769231,3,2,3,2,2,2,2,3,2,2,3,4,2,2,37,36.6,2,36.8,1,6,3,2,-2.09307903565021,-1.300487479561,METU
1994,2,3,2,2,4,2,3,2,1,3,1,1,1,4,3,2,3.11111111111111,0,3.77777777777778,1.33333333333333,62,4.05555555555556,20,2.27272727272727,1,6,2,6,2,2,5,2,2,2,5,2,6,2,1,5,2,2,2,3,2,3,5,2,5,5,2,5,5,6,2,2,6,3,6,5,6,10:08:04,2.2,2,2,4,5,4,5,5,4,3,1,4,3,3,4,1,1,1,2,3,12,7,2.09090909090909,4,1,3,4,3,1,1,1,1,1,3,1,1,1,1,2,2,2,1,1,2,2,5,4,3,2,1,1,3,3,4,2,3,1,2.61538461538462,1,1,2,1, ,4,4,5, ,3,3,3,3,1, ,2,8,1, , ,1,1, ,1, , , , , , , , , , ,7,7,7,7,7,7,7,6,2,4,4,4,4,2,2,2,2,4,2,3,3,4,4,3,4,4,4,3,3,3,3,3,2,2,4,3,2,2,4,2,4,4,2,1,3,2,1,4,3,2,4,2,4,1,3,1,4,4,4,2,4,3,3,2,2,2,2.92307692307692,3,3,4,3,2,2,3,4,3,3,3,4,3,2,36.2,36.3,2,36.25,1,5,3,2,-.641295769093637,1.23864207497744,METU
1969,3,2,2,3,2,3,2,2,2,3,2,2,2,3,3,2,2.66666666666667,0,4.55555555555556,1,60,1.11111111111111, ,2.36363636363636,1,6,2,1,2,6,1,6,1,4,1,7,1,1,2,1,4,1,1,1,1,1,1,1,1,1,1,1,1,1,1,1,1,2,1,2,1,10:05:37,2.4,2,0,4,5,5,5,5,5,3,3,5,5,4,4,2,1,1,1,1,22,4.5,1.63636363636364,3,1,3,1,3,1,1,1,1,1,2,1,1,1,1,1,1,1,1,1,1,4,2,4,3,5,2,2,1,4,3,2,4,3,3,1,2,1,1, ,4,4,4,4,3,3,5,4,1, ,1, ,3,1,4,1,1, ,1, , , , , , , , , , ,3,7,5,4,6,2,4,7,1,1,4,1,4,5,3,1,5,1,1,3,3,4,3,3,4,3,2,5,4,3,4,4,2,3,1,5,1,1,5,1,3,5,4,3,5,4,3,2,3,4,4,4,3,1,3,2,2,2,2,2,3,3,3,3,3,1,3.07692307692308,3,3,4,3,3,2,3,3,4,3,4,3,2,3,35.4,36.3,2,35.85,1,9,3,2,-1.07145377399929,-1.68687675959946,METU
1995,1,1,1,1,1,1,1,1,2,1,2,1,1,2,2,1,3.16666666666667,5,4.55555555555556,5,64,1.72222222222222, ,1.18181818181818,1,7,1,1,2,7,7,2,3,5,1,3,1,2,1,5,7,1,1,1,2,3,1,3,1,1,1,1,1,1,1,1,1,3,3,1,5,10:05:05,1.4,2,2,4,5,5,5,5,5,5,4,4,3,4,6,5,4,4,5,6,12,5.83333333333333,3.18181818181818,5,5,5,5,5,1,1,1,1,1,5,5,5,5,5,5,5,5,5,5,1,5,4,5,2,2,4,3,5,3,3,5,5,5,3.92307692307692,2,2,2,1, ,4,4,4,1,3,1,4,4,1, ,2,8,1, , ,1,1, ,1, , , , , , , , , , ,4,6,6,7,7,5,6,7,2,1,1,1,4,5,5,5,5,2,1,1,4,4,4,2,5,5,5,5,5,3,4,4,2,1,3,5,4,3,4,4,4,4,1,5,5,5,3,1,3,2,5,1,4,1,5,4,5,5,5,1,4,5,3,5,1,5,2.23076923076923,2,3,3,1,2,1,2,2,3,3,3,4,2,2,36.3,36.7,2,36.5,1,6,3,2,-.58752601848043,-1.07969360525331,METU
1995,1,2,1,2,1,2,2,1,1,2,3,2,1,3,3,4,2.72222222222222,1,4,3.33333333333333,69,2.44444444444444, ,1.63636363636364,1,1,1,2,5,6,7,6,2,1,1,1,1,2,2,1,6,2,2,2,1,6,1,1,1,2,2,1,1,2,2,1,2,6,6,5,2,9:58:01,2.6,2,9,4,5,5,5,5,5,2,2,5,2,3,4,6,4,4,4,4,26,5.33333333333333,3.36363636363636,4,4,4,4,4,3,3,3,2,2,4,4,2,2,4,4,2,4,4,4,1,5,5,3,1,3,5,5,4,4,4,1,4,4,3.69230769230769,2,2,1,1, ,4,4,4,4,5,3,7,7,2,3,2,8,1, , ,4,1, ,1, , , , , , , , , , ,6,5,5,5,6,5,5,8,3,2,2,4,4,3,5,4,4,5,5,2,5,5,4,1,5,5,5,5,5,5,5,5,1,1,1,1,4,5,5,4,2,3,2,5,5,5,5,1,2,2,5,2,4,2,5,4,5,5,5,4,5,5,4,2,2,4,2.30769230769231,3,3,3,2,2,2,2,2,2,2,3,3,2,2,35.6,36.1,2,35.85,1,6,3,2,-1.01768402338608,-.362113513753319,METU
1991,3,2,3,3,2,3,4,3,4,3,4,2,4,4,4,3,4.72222222222222, ,4.55555555555556,3.77777777777778,56,3.22222222222222, ,3.09090909090909,1,6,5,3,6,7,5,6,5,6,4,6,4,4,2,2,6,6,2,2,2,5,3,5,2,1,3,3,3,6,3,3,5,3,2,3,4,9:55:26,3.4,2, ,4,5,4,5,5,5,5,4,4,4,3,6,4,2,2,4,3,19,4.83333333333333,4,4,4,4,4,4,4,4,4,4,4,4,4,4,3,4,5,4,4,2,4,2,4,3,3,4,2,3,3,1,2,3,3,4,2,2.84615384615385,2,2,2,1, ,4,2,5, ,3,7,5,8,1, ,2,4,1, , ,1,1, ,1, , , , , , , , , , ,6,6,5,3,5,4,4,6,2,2,4,5,5,5,5,5,5,4,5,1,2,4,4,2,4,4,4,4,4,3,4,4,3,3,2,3,4,4,4,3,2,3,2,3,2,4,4,3,2,4,2,4,4,2,4,4,2,2,4,2,4,4,4,4,2,4,3.07692307692308,3,4,3,2,3,3,3,4,3,3,3,4,3,3,36.6,36.4,2,36.5,1,4,3,2,.918026998689354,.410665046323597,METU
1996,2,2,1,2,4,2,3,2,1,2,1,2,1,2,4,1,5.44444444444444,0,3.66666666666667,4.22222222222222,70,2.83333333333333,18,2,1,7,6,4,7,6,7,5,7,6,5,7,2,7,6,3,6,5,2,2,2,5,2,3,2,2,2,2,2,3,6,2,2,5,3,1,5,9:54:40,2,2,5,4,4,4,4,4,4,3,3,3,4,4,5,2,2,2,1,1,15,6.33333333333333,3.72727272727273,5,5,5,5,5,2,1,2,4,2,5,5,5,5,5,2,5,5,1,5,2,2,2,2,2,2,2,3,1,2,3,2,2,2,2.07692307692308,2,1,2,1, ,4,4,5, ,6,3,6,6,1, ,2,5,1, , ,1,1, ,1, , , , , , , , , , ,7,7,5,7,7,5,7,6,3,1,4,2,5,5,2,2,5,4,4,1,4,4,4,5,4,5,5,5,4,4,4,4,2,4,1,4,1,4,4,1,5,5,5,5,5,4,4,2,4,1,4,1,5,1,5,1,4,4,2,1,5,5,5,5,1,5,3.46153846153846,4,4,4,3,3,4,3,4,3,4,3,5,2,4,35.2,36.4,1,35.8,1,3,3,2,1.61703375666104,.0242757662851389,METU
1994,5,4,4,4,2,5,5,4,3,5,5,2,4,2,4,2,5.5,0,5,5,78,4, ,4.18181818181818,1,7,5,5,6,7,6,5,6,6,2,6,7,6,5,5,7,6,2,2,2,5,5,7,5,6,5,6,2,2,2,2,5,6,6,2,2,9:52:18,2.8,2,8,4,5,5,5,5,5,5,5,5,5,4,6,6,6,6,5,7,13,5.83333333333333,4.90909090909091,5,5,5,5,5,5,5,5,4,5,5,5,5,5,5,5,5,5,5,5,1,3,2,2,2,5,2,4,2,1,5,2,4,5,3,2,2,2,1, ,4,4,4,1,7,3,6,3,1, ,2,8,1, , ,1,1, ,1, , , , , , , , , , ,6,7,6,6,5,5,5,7,2,2,1,2,4,4,5,4,4,4,4,2,3,5,4,3,4,2,2,4,5,3,4,4,2,2,2,3,2,4,4,2,4,4,4,4,4,4,2,2,4,5,3,4,4,2,4,4,2,2,4,2,4,4,4,4,2,4,3.30769230769231,4,4,5,3,2,2,2,4,3,3,4,4,3,4,36,37,2,36.5,1,8,3,2,1.67080350727425,1.18344360640051,METU
1985,2,2,1,2,3,1,3,2,2,1,2,1,1,2,2,1,2.77777777777778,0,4,1.44444444444444,74,2.05555555555556, ,1.90909090909091,1,3,2,2,2,3,5,2,3,3,3,2,2,2,4,3,5,2,2,2,2,2,2,2,2,2,2,2,2,2,2,2,2,2,2,2,3,9:50:32,1.4,2,2,4,4,4,4,4,4,4,4,4,4,4,6,5,2,4,2,1,37,5.83333333333333,3.27272727272727,5,5,5,4,5,1,1,1,1,3,5,1,1,1,1,2,1,2,1,3,1,5,3,5,4,3,2,1,3,4,4,4,4,3,3.46153846153846,2,2,1,2,2,4,4,2,2,4,4,4,3,1, ,1, ,1, , ,3,2,8,2,siyasi örgüt,hobi grubu, , , ,10,3, , , ,7,7,7,7,1,6,6,8,2,4,2,5,5,2,2,2,2,5,5,1,2,4,4,2,3,4,4,3,2,3,4,3,2,3,3,1,4,4,3,4,2,4,2,4,5,3,3,2,4,3,4,4,4,2,5,3,5,5,5,2,5,4,5,5,2,3,2.15384615384615,2,3,2,2,2,2,2,3,2,2,2,3,2,2,36.9,36.4,2,36.65,1,12,3,2,-.963914272772876,-.748502793791778,METU
1991,1,1,1,2,1,1,1,2,4,1,1,2,2,2,3,2,3.05555555555556, ,4.66666666666667,2.88888888888889,70,2.22222222222222, ,1.45454545454545,1,6,2,2,5,5,3,2,5,2,2,2,2,5,1,2,5,2,2,2,2,2,2,2,5,2,2,2,2,2,3,2,2,2,2,2,2,9:50:23,2.2,2, ,4,4,4,4,5,5,5,5,5,5,5,3,3,1,3,3,2,24,5.66666666666667,2.90909090909091,4,4,4,4,2,1,4,2,2,1,4,3,4,2,4,4,3,3,1,2,1,4,4,5,3,2,4,4,2,4,4,3,4,3,3.53846153846154,2,2,4,1, ,4,4,4,1,4,3,7,7,1, ,2,5,1, , ,1,1, ,2,Öğrenci Topluluğu, , , , ,7, , , , ,5,6,6,6,6,5,5,7,3,5,4,3,4,5,4,2,4,2,2,1,4,4,3,2,3,4,4,4,4,3,4,4,2,2,1,4,1,1,4,2,4,4,1,4,5,2,4,1,3,3,4,3,4,1,4,3,5,4,4,3,4,4,4,4,2,4,2.23076923076923,2,3,3,2,2,2,2,2,2,2,3,4,2,2,36,36.4,2,36.2,1,3,3,2,-.695065519706843,-.58290738806101,METU
1993,2,4,2,4,2,2,2,3,4,2,2,2,4,4,4,2,3.22222222222222,0,4.88888888888889,1,52,3.88888888888889, ,2.63636363636364,1,4,2,3,2,6,3,3,3,4,3,4,2,3,4,2,4,4,2,5,4,3,5,6,5,3,3,4,4,3,4,3,5,4,4,3,2,9:47:51,3.2,2,0,4,5,5,5,5,5,5,4,5,5,3,2,5,2,2,2,1,11,4.33333333333333,2.27272727272727,4,1,4,1,4,1,2,2,2,2,2,1,1,1,1,1,1,1,1,1,2,2,5,5,5,3,4,2,3,4,3,3,5,5,3.76923076923077,2,2,2,1, ,4,4,5, ,5,1,5,3,2,1,2,3,1, , ,1,1, ,1, , , , , , , , , , ,3,5,5,5,4,4,4,7,1,2,2,4,4,3,4,3,4,4,4,2,2,2,4,4,3,4,2,3,5,3,3,4,2,2,2,2,3,4,4,4,4,4,3,3,3,4,4,2,3,4,4,2,2,2,4,3,2,4,2,4,4,2,4,3,2,3,2.30769230769231,3,3,2,2,2,2,2,3,2,3,2,4,2,2,37.1,36.9,2,37,1,3,3,2,-.533756267867223,1.07304666924667,METU
1996,4,4,4,4,4,3,4,3,2,4,2,2,3,2,3,2,4.55555555555556,0,3.22222222222222,3.22222222222222,60,2.61111111111111, ,3.45454545454545,1,6,5,3,6,5,5,4,5,6,6,3,2,6,2,6,5,5,2,4,2,2,3,6,2,2,2,2,2,2,2,2,3,3,3,2,3,9:45:57,2.4,2,1,4,4,3,4,3,3,3,3,3,3,5,7,5,2,3,3,4,11,4.5,2.90909090909091,4,4,4,4,4,2,1,1,2,2,4,4,4,2,3,4,4,2,3,3,1,2,2,3,2,3,2,4,2,2,2,2,4,4,2.61538461538462,1,2,2,1, ,4,4,4,1,2,1,3,3,1, ,2,6,1, , ,1,1, ,1, , , , , , , , , , ,4,5,5,5,4,4,4,7,2,4,1,5,3,2,4,4,1,5,4,4,2,4,4,4,3,4,4,4,2,3,4,3,3,3,4,1,5,4,2,5,2,4,2,4,2,4,3,2,3,3,4,3,4,2,4,4,4,4,4,3,4,3,4,2,3,4,3.30769230769231,3,4,4,3,3,3,3,3,3,4,3,4,4,3,36.2,36.1,2,36.15,1,9,3,2,.756717746849734,-.196518108022551,METU
1996,2,4,2,3,3,3,4,4,5,4,2,2,3,2,2,2,4.44444444444444,0,5,4.55555555555556,64,3.33333333333333, ,3.27272727272727,1,6,4,5,2,5,6,2,6,5,6,5,4,2,3,6,6,5,2,2,6,3,2,5,5,5,2,2,6,2,5,3,3,2,2,2,3,9:45:28,2.2,2,1,4,5,5,5,5,5,5,5,5,5,5,6,7,2,6,5,6,23,3.66666666666667,4.63636363636364,5,5,5,5,5,5,4,5,2,5,5,4,4,4,5,4,5,5,5,5,1,5,3,5,2,4,1,3,4,4,4,3,5,5,3.69230769230769,2,2,2,1, ,4,4,5, ,7,5,8,7,1, ,2,8,1, , ,6,1, ,1, , , , , , , , , , ,4,3,5,4,3,3,3,6,4,1,4,1,3,4,5,3,5,2,2,1,3,4,4,2,4,5,5,2,5,4,2,4,5,1,5,5,1,1,5,1,3,5,4,4,5,5,1,1,5,5,3,5,5,2,5,5,5,5,5,3,3,5,2,5,1,5,2.53846153846154,3,3,4,3,2,2,2,3,2,2,3,4,1,3,35.4,37.1,2,36.25,1,2,3,2,.649178245623321,.521061983477442,METU
1995,1,1,1,1,1,1,1,1,3,1,1,1,1,2,3,1,5.11111111111111,0,5,1,74,1.11111111111111,20,1.18181818181818,1,7,5,4,6,7,7,5,6,7,5,6,6,2,3,2,6,7,1,1,1,2,1,1,1,1,1,1,1,1,1,1,1,1,1,1,2,9:45:10,1.6,2,0,4,5,5,5,5,5,5,5,5,5,5,6,6,6,5,2,6,28,6.83333333333333,1.90909090909091,5,1,1,4,1,1,1,1,1,1,4,1,1,1,1,1,1,1,1,1,1,1,5,4,4,4,2,5,4,5,5,3,5,4,3.92307692307692,2,1,1,1, ,4,4,4,4,8,5,5,5,1, ,2,4,3,1,4,1,2,3,1, , , , , , , , , , ,6,7,7,7,7,7,7,9,2,1,3,5,5,5,5,5,5,5,5,1,4,5,1,5,5,5,5,5,5,5,5,5,1,1,1,4,1,1,1,1,3,3,1,5,4,5,2,1,4,1,5,5,5,1,5,4,5,5,5,1,5,5,5,5,4,5,2.30769230769231,2,3,3,2,2,2,2,2,2,2,3,4,2,3,37.1,36.8,2,36.95,1,12,3,2,1.2944152529818,-1.68687675959946,METU
1997,3,2,1,2,3,4,4,1,1,2,2,1,1,2,4,1,4.66666666666667, ,4.88888888888889,4.88888888888889,70,3.05555555555556, ,2.27272727272727,1,7,6,4,7,7,7,7,7,7,1,7,1,2,1,3,6,2,2,1,1,1,6,6,1,7,7,7,1,1,2,1,7,2,1,1,2,9:44:23,1.8,2, ,4,5,5,5,4,5,5,5,5,5,5,8,6,2,4,4,4,28,5.16666666666667,4.27272727272727,5,4,5,5,5,2,4,5,2,5,5,5,5,5,5,5,4,5,5,5,2,2,3,5,5,3,2,3,2,4,5,2,4,5,3.46153846153846,2,2,2,1, ,4,4,5, ,8,5,8,8,1, ,2,8,1, , ,4,1, ,2,Engelsiz Odtü Topluluğu, , , , ,6, , , , ,6,5,5,5,4,6,6,6,3,1,2,1,5,5,3,4,5,2,4,1,1,5,2,3,5,5,5,5,5,5,5,5,1,1,1,5,1,4,5,1,5,5,4,5,4,4,2,4,2,3,5,4,3,1,5,2,4,2,5,2,5,5,5,5,1,5,2.69230769230769,3,4,4,2,2,2,2,3,2,3,3,4,2,3,36.6,36.6,2,36.6,1,3,3,2,.864257248076148,.245069640592829,METU
1996,2,4,2,3,2,3,3,3,3,3,2,1,2,2,2,2,4.5,0,3.88888888888889,2.11111111111111,64,3.11111111111111, ,2.72727272727273,1,5,5,3,6,6,5,5,6,5,2,5,5,6,5,2,5,2,3,2,2,3,4,3,3,5,5,4,2,2,2,2,5,5,3,2,2,9:42:07,1.8,2,2,4,5,5,4,4,4,4,3,3,3,5,3,3,1,2,4,2,21,4.5,3.09090909090909,4,4,4,4,3,2,2,2,2,3,4,2,3,2,4,1,3,1,1,2,2,4,3,3,3,4,2,2,2,3,4,2,3,3,2.92307692307692,2,2,2,1, ,4,4,5, ,4,2,3,3,1, ,2,8,1, , ,5,1, ,2,odtü hokey, , , , ,6, , , , ,2,5,5,5,6,4,4,6,3,4,2,3,4,3,4,4,3,3,4,2,3,4,4,3,4,4,4,4,4,3,4,4,2,3,2,3,4,4,3,4,4,2,2,2,3,2,4,4,3,3,4,3,2,2,3,4,3,3,4,4,3,4,4,3,4,4,3.07692307692308,4,3,3,3,2,3,4,4,3,2,4,4,2,3,35.2,36.9,2,36.05,1,2,3,2,.702947996236528,.300268109169752,METU
1996,1,1,1,1,1,1,1,1,1,1,1,1,1,1,1,1,2.88888888888889,0,3.88888888888889,1.22222222222222,71,1.33333333333333, ,1,1,5,2,2,3,6,3,1,5,5,2,4,2,1,5,2,2,1,1,2,1,2,1,2,1,1,1,1,1,1,2,1,1,2,1,1,2,9:41:37,1,2,4,4,5,5,5,5,5,4,2,3,1,5,6,4,2,3,3,4,42,1.66666666666667,1.45454545454545,2,2,2,2,2,1,1,1,1,1,1,1,1,1,1,2,2,1,1,1,1,5,4,4,4,5,5,2,2,5,5,3,5,5,4.15384615384615,2,2,2,1, ,4,4,4,1,5,4,6,6,1, ,2,8,1, , ,4,2,8,2,ODTÜ Quidditch topluluğu,ODTÜ LGBTİ çalışmaları, , , ,7,7, , , ,2,2,2,1,1,2,1,8,4,2,1,4,4,2,4,2,4,5,4,4,4,5,2,1,4,5,5,5,4,4,5,4,1,1,1,1,4,4,2,4,1,4,3,2,5,2,3,2,2,3,5,1,4,2,4,2,5,5,4,1,4,5,2,4,2,3,1.38461538461538,2,2,2,1,2,1,1,1,2,1,1,3,1,1,36.3,36.7,2,36.5,1,8,3,2,-.856374771546463,-1.46608288529177,METU
1996,2,2,3,3,2,2,3,2,2,3,2,2,2,2,4,2,3.72222222222222, ,4.77777777777778,1,69,3.05555555555556, ,2.36363636363636,1,6,5,2,2,7,3,3,5,6,2,5,2,4,1,4,7,1,2,2,2,2,6,7,2,4,2,2,2,4,5,2,5,3,2,2,1,9:39:35,2.4,2, ,4,5,5,5,5,5,4,4,5,5,5,7,3,2,2,2,2,15,6.33333333333333,2.09090909090909,4,1,4,3,3,1,1,1,1,1,3,1,1,1,1,1,1,1,1,1,1,4,4,4,5,1,5,4,4,4,4,4,2,2,3.61538461538462,2,2,2,1, ,2,2,2,2,8,8,2,1,1, ,2,8,1, , ,1,1, ,1, , , , , , , , , , ,7,6,7,6,6,6,6,7,2,4,2,5,5,2,2,4,2,5,4,2,3,4,4,4,4,3,3,4,4,3,4,4,1,1,1,2,2,4,4,3,3,3,1,2,3,3,3,3,3,4,4,3,2,3,4,4,5,5,3,3,4,3,3,3,3,4,3,3,3,3,3,3,3,3,3,3,3,3,3,3,3,36.9,36.6,2,36.75,1,6,3,2,-.0498285123483643,.245069640592829,METU
1996,4,4,3,3,4,4,4,3,3,4,3,1,4,2,3,1,4.72222222222222,0,4,4,70,4.05555555555556,4,3.54545454545455,1,6,5,5,6,6,6,6,5,6,4,6,2,5,3,5,5,3,1,4,4,6,5,5,4,6,4,5,3,2,4,2,6,4,4,2,3,9:35:03,2.2,2,8,4,4,4,4,5,4,4,4,3,4,5,7,6,6,6,6,3,30,5.33333333333333,3.09090909090909,3,3,3,3,3,2,4,4,2,3,4,4,4,4,4,4,4,4,4,4,1,2,3,4,2,2,2,2,1,2,3,2,3,4,2.46153846153846,2,1,2,1, ,4,4,4,1,4,2,5,4,1, ,2,8,1, , ,3,2,8,2,Ankara Gönüllü Takımı, , , , ,12, , , , ,6,5,5,5,6,5,5,8,3,3,3,4,4,2,4,3,2,4,4,2,4,4,4,2,5,5,5,4,4,3,4,4,2,2,2,2,3,4,4,4,4,4,2,3,4,4,4,2,3,4,3,4,5,2,4,2,4,3,5,5,4,5,2,2,2,5,3.07692307692308,3,3,4,2,3,3,3,3,3,3,4,4,4,2,36.4,36.4,2,36.4,1,3,3,2,.918026998689354,1.23864207497744,METU
1993,2,2,1,2,2,2,1,3,2,2,2,2,1,2,2,2,2.77777777777778, ,4.55555555555556,1.33333333333333,64,2, ,1.90909090909091,1,6,3,1,2,4,4,2,1,2,1,5,1,2,2,4,5,3,2,1,2,2,2,2,2,2,2,2,2,4,3,2,1,2,2,1,2,9:31:53,1.8,2, ,4,5,5,5,5,5,3,3,5,5,5,6,3,2,1,1,1,27,3.66666666666667,2.63636363636364,4,3,4,4,4,2,1,2,1,1,3,1,1,1,1,3,1,1,1,2,1,5,5,5,5,1,3,4,4,4,2,4,4,4,3.84615384615385,1,2,2,1, ,4,4,4,1,5,2,5,5,1, ,2,4,1, , ,1,2,2,2,Eskrim TAKIMI,Bitirme projesi grubu, , , ,20,4, , , ,5,5,3,4,3,2,3,8,2,4,2,4,4,2,5,5,2,4,4,3,3,4,3,2,4,4,3,4,5,3,4,4,1,1,1,2,4,4,2,4,2,4,2,5,4,3,3,2,2,4,4,3,3,3,3,2,3,3,3,4,3,4,2,2,3,1,2.53846153846154,2,3,3,3,4,2,3,2,2,2,3,3,2,2,35.4,36.6,2,36,1,2,3,2,-.963914272772876,-.8037012623687,METU
1995,3,3,4,3,4,3,4,3,2,3,3,2,4,3,4,4,4.16666666666667, ,4.22222222222222,4.44444444444444,74,2.5, ,3.18181818181818,1,6,4,1,4,4,5,6,4,6,4,7,4,2,4,2,7,4,1,2,2,5,2,7,1,1,3,2,2,1,2,2,1,4,3,2,3,11:29:24,3.4,2, ,3,5,5,4,5,5,4,4,2,4,5,5,6,4,5,4,3,13,6.5,3.63636363636364,4,4,4,4,4,3,2,3,3,5,4,5,5,3,5,5,3,5,4,5,2,1,2,5,3,5,2,3,1,3,3,2,2,4,2.76923076923077,2,2,2,1, ,4,2,5, ,2,2,5,5,2,2,2,6,1, , ,1,1, ,1, , , , , , , , , , ,5,7,7,7,7,6,6,7,3,2,1,5,5,1,3,5,1,5,5,1,3,5,4,3,4,5,5,5,5,5,5,5,1,1,1,4,4,5,4,5,5,5,1,1,2,2,5,2,3,3,2,3,2,2,5,4,5,4,5,2,2,5,3,2,5,2,2.92307692307692,3,3,3,3,3,2,3,3,3,3,3,3,3,3,36.5,36.8,2,36.65,1,12,3,2,.380329492557288,-.306915045176397,METU
1994,2,2,1,3,2,2,3,3,2,2,1,1,2,1,2,1,2.22222222222222,0,3.22222222222222,2.55555555555556,59,2.27777777777778,15,2.09090909090909,1,2,2,2,2,5,2,2,2,2,3,2,2,2,2,2,3,2,1,3,2,3,3,2,5,2,2,2,1,2,2,2,2,2,2,2,2,11:24:29,1.4,2,18,3,4,3,2,5,4,4,2,3,2,4,4,5,2,4,5,1,30,3.66666666666667,2.09090909090909,4,2,2,4,2,1,1,1,2,1,3,2,3,4,2,3,1,2,2,4,1,5,5,5,3,3,2,3,3,2,5,4,4,4,3.69230769230769,2,1,2,1, ,4,4,5, ,4,4,8,6,1, ,2,6,1, , ,1,1, ,2,Komünist Parti,Tiyatro Topluluğu, , , ,7,7, , , ,3,4,3,5,4,3,2,6,3,3,2,4,5,4,2,4,2,5,4,1,4,4,4,5,5,4,4,3,2,3,4,3,2,4,2,3,4,5,2,4,4,3,2,2,5,4,3,2,4,4,4,4,2,2,4,3,4,4,5,3,4,4,5,4,4,5,2.38461538461538,3,2,3,2,3,2,3,2,2,2,3,4,2,2,35.1,35.6,2,35.35,1,2,3,2,-1.50161177890494,-.527708919484087,METU
1993,3,2,2,3,1,4,4,2,3,2,1,2,1,2,3,2,3.33333333333333,0,5,2.77777777777778,56,3.22222222222222, ,2.45454545454545,1,5,3,5,5,6,3,6,2,4,1,3,3,2,2,2,5,2,1,6,2,4,3,2,2,3,3,3,2,2,1,1,4,5,6,3,6,11:23:30,2,2,1,3,5,5,5,5,5,5,5,5,5,4,4,5,1,3,3,3,16,3.66666666666667,3.54545454545455,5,4,5,5,5,1,2,2,3,2,5,3,4,3,3,4,2,2,3,1,1,3,4,2,2,3,2,2,2,3,4,1,4,2,2.61538461538462,2,2,2,1, ,4,4,4,2,7,2,5,5,1, ,2,8,1, , ,2,1, ,1, , , , , , , , , , ,5,4,4,4,3,2,3,7,3,2,2,4,4,4,2,2,4,3,2,1,4,4,4,2,4,4,4,4,4,3,5,5,2,2,1,4,2,3,4,4,3,4,2,1,4,3,4,2,2,4,4,2,5,1,5,3,5,5,5,1,4,5,2,4,2,4,2.69230769230769,3,4,4,2,2,2,2,2,3,3,4,4,2,2,35.1,36.1,2,35.6,1,4,3,2,-.42621676664081,.410665046323597,METU
1990,3,4,2,4,4,3,4,4,4,4,3,3,4,3,3,3,3.72222222222222,3,3.55555555555556,2.11111111111111,74,4.5,10,3.54545454545455,1,4,4,4,5,4,3,4,5,4,4,3,2,5,1,4,4,4,3,5,5,5,5,5,4,5,5,5,3,5,3,3,6,4,5,4,4,11:21:09,3.2,2,2,3,4,3,4,4,3,3,3,4,4,4,5,5,2,3,2,2,18,4.83333333333333,2.72727272727273,3,3,4,3,4,2,2,2,1,2,4,1,3,1,1,3,3,3,1,3,2,2,2,2,2,2,1,1,2,2,3,2,2,3,2,2,1,2,1, ,4,2,5, ,8,6,8,8,1, ,2,8,1, , ,1,1, ,1, , , , , , , , , , ,4,5,5,5,5,5,5,6,3,3,2,3,4,2,5,4,2,4,3,2,2,2,3,4,3,2,2,3,3,3,3,3,2,2,2,3,2,3,4,3,3,3,2,4,4,4,3,2,3,4,3,4,2,3,3,2,2,3,2,3,3,3,2,2,2,3,3.23076923076923,4,3,4,3,3,3,3,4,3,3,3,4,3,3,35.6,35.8,2,35.7,1,12,3,2,-.0498285123483643,1.68022982359282,METU
1994,3,3,1,4,3,4,4,3,3,4,2,3,5,4,3,2,3.05555555555556,0,2.22222222222222,3.66666666666667,64,2.77777777777778,5,3.09090909090909,1,4,2,2,5,6,2,5,2,2,2,3,2,2,3,2,6,2,3,4,3,2,2,3,2,2,2,2,3,2,3,3,2,3,4,4,4,11:20:39,3.4,2,5,3,3,3,3,2,2,2,2,1,2,5,6,3,1,3,3,3,37,2.66666666666667,2.90909090909091,2,4,3,2,2,3,4,4,4,2,2,4,4,4,4,4,2,4,3,4,2,4,4,3,2,2,4,4,2,3,4,2,3,3,3.07692307692308,2,1,3,1, ,4,4,5, ,2,1,8,6,1, ,2,8,3,1,8,1,2,8,2,TED burslu öğrencileri, , , , ,7, , , , ,3,3,3,3,2,2,2,8,4,1,4,1,3,4,4,4,4,1,2,1,3,4,3,2,4,3,3,3,2,3,3,2,3,4,3,5,1,2,5,1,5,4,4,5,5,3,4,3,4,3,4,4,4,1,2,2,4,2,4,2,4,4,3,3,3,4,2.46153846153846,3,3,3,2,2,2,2,2,2,2,3,3,3,3,36.4,36.5,2,36.45,1,6,3,2,-.695065519706843,-.0309227022917839,METU
1980,2,2,2,2,1,1,2,1,1,2,2,2,2,2,2,2,4.44444444444444, ,3.33333333333333,3.11111111111111,39,2.27777777777778, ,1.63636363636364,1,5,5,4,5,5,5,5,5,5,1,5,4,5,6,3,7,3,2,1,3,3,1,1,3,3,3,3,1,2,3,1,3,3,3,1,3,11:20:04,2,2, ,3,4,4,4,4,4,2,2,4,2,5,6,5,1,5,2,3,24,4.33333333333333,3.45454545454545,4,4,4,2,4,2,2,4,4,4,4,4,3,2,2,4,2,3,4,4,2,2,5,3,3,4,2,2,4,1,4,2,2,2,2.76923076923077,2,2,2,1, ,4,4,5, ,2,3,5,4,1, ,1, ,3,1,3,1,2,7,2, , , , , , , , , , ,3,4,5,4,5,5,4,7,2,1,1,2,5,4,4,2,5,4,4,2,5,4,5,5,4,4,4,4,2,4,4,4,2,3,4,4,2,4,5,2,4,3,4,5,2,2,4,4,4,4,4,4,2,5,4,2,4,4,2,2,3,4,4,3,4,2,2.76923076923077,4,4,4,2,2,1,2,3,3,2,4,4,2,3,36.3,36.2,2,36.25,1,12,3,2,.649178245623321,-.527708919484087,METU
1995,2,4,2,4,1,3,4,4,2,4,2,2,3,4,4,2,4, ,3.88888888888889,2.66666666666667,66,2.72222222222222,20,2.90909090909091,1,4,4,3,4,5,4,3,5,2,3,7,4,3,5,3,6,4,3,3,3,3,3,2,2,4,3,3,2,2,4,3,3,2,2,2,3,11:17:26,3,2, ,3,5,4,4,4,4,4,4,3,3,5,4,2,2,3,3,3,17,6.66666666666667,3.45454545454545,3,4,4,4,4,3,3,4,3,3,3,2,4,2,3,2,2,2,4,3,2,2,3,2,1,3,1,1,1,1,3,2,2,2,1.84615384615385,1,1,2,1, ,4,4,5, ,8,3,8,8,1, ,2,4,1, , ,1,1, ,1, , , , , , , , , , ,6,7,7,7,7,6,6,6,2,2,2,4,4,2,3,2,2,4,4,2,4,4,3,2,4,3,3,4,4,4,4,4,2,3,4,3,4,4,3,4,2,4,3,3,2,2,3,4,4,2,4,4,2,3,4,3,3,3,4,2,2,2,4,3,3,2,3.53846153846154,5,4,3,4,4,3,3,4,3,3,4,5,3,3,34.2,35.9,2,35.05,1,5,3,2,.219020240717669,-.0861211708687063,METU
1979,3,4,1,2,2,2,4,4,3,2,1,2,1,4,5,3,2.55555555555556,5,3.11111111111111,1.44444444444444,64,2.11111111111111,2,2.54545454545455,1,2,2,2,1,5,5,2,1,2,4,2,2,2,1,4,6,2,1,2,3,2,1,4,2,2,1,1,3,2,2,2,5,1,2,1,2,11:16:51,3,2,2,3,4,4,3,4,4,3,3,2,1,4,5,4,1,2,3,5,50,4.83333333333333,1.45454545454545,2,1,2,3,1,1,1,1,2,1,1,1,2,1,1,4,1,1,1,1,1,4,4,3,4,4,1,3,4,2,3,3,3,2,3.07692307692308,1,1,1,1, ,4,4,4,2,3,3,1,1,1, ,1, ,3,8,8,1,2,4,2,araştırma grubu,siyasi parti,iş yeri, , ,10,6,5, , ,6,4,5,4,5,5,4,8,1,1,4,4,5,4,3,3,4,1,2,2,3,4,2,1,5,4,4,4,3,3,3,2,2,3,3,5,1,2,4,1,4,3,2,2,2,3,3,2,1,1,5,1,4,2,4,3,5,5,3,3,4,3,2,3,2,4,3.23076923076923,2,2,4,3,3,4,3,4,3,4,3,4,4,3,35.6,36.2,2,35.9,1,2,3,2,-1.1789932752257,-.693304325214855,METU
1994,2,3,2,3,2,2,2,4,4,3,3,2,2,2,4,2,3.77777777777778,0,3.88888888888889,3,64,3.94444444444444,2,2.72727272727273,1,6,5,2,3,5,6,2,5,4,2,4,4,2,2,4,5,5,2,5,5,5,5,5,2,3,5,3,5,3,5,2,5,3,5,2,3,11:16:31,2.4,2,14,3,5,4,4,5,5,3,3,3,3,3,4,2,2,2,3,3,20,6.5,3,4,4,4,4,4,2,1,3,1,2,4,2,3,3,3,4,2,4,3,3,2,3,2,4,3,4,2,3,1,2,3,2,4,3,2.76923076923077,1,1,2,1, ,4,4,4,4,8,6,4,4,1, ,2,2,1, , ,1,1, ,1, , , , , , , , , , ,6,7,6,7,7,6,6,7,1,2,3,2,4,4,4,3,4,3,4,2,2,3,4,4,3,2,3,4,4,3,3,3,2,2,2,2,2,4,4,2,4,5,2,2,3,4,2,2,4,3,3,4,4,2,4,4,2,2,3,2,4,4,4,4,1,4,3,3,3,4,3,2,2,3,3,3,3,3,4,4,3,35.5,35.8,2,35.65,1,6,3,2,.00394123826484211,1.12824513782359,METU
1993,4,4,2,2,2,4,4,4,3,2,2,2,4,4,2,2,4.5,0,3.33333333333333,2.77777777777778,62,2.22222222222222, ,3,1,6,2,4,5,6,6,5,6,6,2,5,5,3,6,2,5,5,2,2,2,2,2,2,6,2,2,2,2,2,2,2,2,2,2,2,2,11:15:13,2.8,2,2,3,4,4,4,4,4,2,2,3,3,4,4,5,1,3,1,4,42,2.66666666666667,3.18181818181818,4,4,4,4,4,3,2,2,2,2,4,2,4,2,3,2,2,4,2,4,1,5,1,3,2,4,2,3,5,3,4,2,3,4,3.15384615384615,1,2,3,1, ,4,4,4,4,3,2,7,7,1, ,2,8,1, , ,3,2,4,2,AEGEE,Standing honor,petrol, , ,7,4,6, , ,6,2,2,2,2,2,2,8,3,2,2,4,4,1,2,4,1,5,5,2,2,4,4,4,4,4,4,4,4,3,4,3,2,2,2,1,5,5,2,4,2,4,2,2,4,2,4,4,4,3,4,3,3,4,3,4,3,3,3,4,3,3,3,2,2,2,2.69230769230769,3,3,3,2,2,3,3,3,2,3,3,4,2,3,35.1,36.5,2,35.8,1,5,3,2,.702947996236528,-.58290738806101,METU
1985,1,1,1,1,1,2,2,1,2,1,1,1,1,3,3,2,1.83333333333333,0,3,1.22222222222222,74,1.94444444444444,25,1.27272727272727,1,5,1,1,1,4,3,1,1,2,1,2,1,1,1,1,5,1,1,7,2,1,1,1,7,2,2,1,1,1,2,1,1,1,1,1,2,11:15:03,2,2,1,3,5,3,5,4,1,4,1,3,1,4,4,4,3,3,1,1,19,4.66666666666667,1.54545454545455,2,2,2,2,2,1,1,1,1,1,2,1,1,1,1,3,1,1,1,1,1,3,4,4,2,4,2,2,2,2,5,3,4,3,3.07692307692308,2,1,4,1, ,4,4,4,2,4,2,5,3,1, ,1, ,3,1,5,1,1, ,1, , , , , , , , , , ,5,5,4,4,5,5,5,7,1,2,2,2,2,4,2,2,2,4,2,1,4,4,4,3,4,5,5,4,3,3,4,3,3,4,4,5,3,1,1,1,5,4,2,4,4,2,3,2,3,2,5,4,2,1,4,4,5,3,4,1,3,4,1,1,5,1,2.30769230769231,2,2,3,2,2,2,2,3,2,2,2,3,3,3,36.3,35.9,2,36.1,1,12,3,2,-1.87800003319739,-.858899730945623,METU
1993,2,2,4,2,1,1,2,2,2,1,1,1,1,2,1,2,4, ,4.55555555555556,2.22222222222222,56,2.5, ,1.81818181818182,1,7,3,2,5,6,5,5,5,4,3,5,1,4,2,4,5,5,1,2,2,4,2,3,2,2,3,2,3,3,2,2,2,3,3,2,3,11:12:39,1.4,2, ,3,5,5,5,5,5,4,4,4,4,5,6,5,2,5,2,5,28,3.16666666666667,2.90909090909091,4,4,4,4,4,2,1,1,2,2,4,4,3,3,2,2,1,1,1,3,1,4,3,5,4,2,2,2,2,4,5,3,5,4,3.46153846153846,2,2,1,1, ,4,4,4,2,7,5,6,6,1, ,2,8,1, , ,1,1, ,2,Jakuto,Biyogen, , , ,4,5, , , ,3,3,3,4,3,3,3,7,3,4,1,4,4,3,4,4,1,5,5,2,3,4,4,4,4,4,4,4,4,3,4,4,2,2,3,1,3,5,5,4,3,2,2,2,5,4,4,1,4,3,4,3,4,3,4,3,4,4,4,3,2,4,2,2,1,4,2.61538461538462,3,3,3,2,2,2,3,3,2,3,2,4,3,3,36.3,36.3,2,36.3,1,4,3,2,.219020240717669,-.306915045176397,METU
1993,2,3,1,2,2,2,2,2,1,2,1,2,2,3,4,2,3.77777777777778, ,4.44444444444444,3,72,2.16666666666667, ,1.81818181818182,1,6,5,3,5,6,2,5,1,5,2,6,2,2,2,2,6,7,1,2,3,4,1,2,2,1,2,1,2,3,3,2,2,1,1,3,4,11:11:33,2.6,2, ,3,5,4,5,4,5,5,4,4,4,4,6,5,1,4,4,1,23,5.5,2.72727272727273,4,4,4,4,4,1,1,1,1,2,4,4,4,2,3,2,2,4,2,4,1,2,1,2,1,2,5,1,2,2,2,2,2,3,2.07692307692308,2,2,2,1, ,2,2,4,1,1, ,4,4,1, ,2,8,1, , ,1,2,2,2,biyogen,akek, , , ,5,7, , , ,6,5,6,6,5,5,5,7,1,3,2,4,5,2,3,2,3,3,2,2,2,4,3,2,4,4,5,4,3,3,2,2,1,1,1,4,4,4,4,4,5,4,2,2,3,3,5,2,2,3,4,4,4,2,4,2,4,3,4,2,4,4,3,2,1,5,3.84615384615385,4,4,5,3,3,3,4,5,4,4,4,4,3,4,36.3,36.8,2,36.55,1,2,3,2,.00394123826484211,-.638105856637932,METU
1993,4,4,4,3,4,3,4,3,3,4,3,1,4,2,4,3,4.5,0,4,2.22222222222222,49,4,20,3.54545454545455,1,5,4,5,5,6,4,4,5,3,5,2,5,6,5,4,4,5,4,5,3,5,5,5,4,5,4,3,3,6,3,3,5,3,3,3,4,11:10:51,2.8,2,10,3,4,4,4,5,4,5,3,4,3,5,6,5,6,4,5,5,12,6.33333333333333,2.63636363636364,4,3,4,3,2,1,1,2,4,3,2,2,2,2,2,4,2,3,1,2,2,4,5,3,4,4,4,5,2,4,3,3,4,3,3.69230769230769,1,1,2,1, ,4,4,5, ,8,3,4,3,1, ,2,8,1, , ,1,1, ,1, , , , , , , , , , ,7,6,7,6,7,5,6,6,2,3,2,4,4,2,4,3,4,4,5,2,3,4,4,2,4,1,3,4,4,3,2,4,5,3,3,3,4,4,2,4,3,4,2,4,3,4,3,2,3,2,5,4,2,3,4,3,4,2,3,3,4,3,4,4,2,4,2.61538461538462,2,3,5,2,2,2,2,2,2,2,5,3,2,3,36.8,36.5,2,36.65,1,6,3,2,.702947996236528,1.18344360640051,METU
1995,2,1,1,2,1,2,3,2,1,3,2,2,1,1,2,4,3.44444444444444,0,4.55555555555556,3.11111111111111,71,1.5, ,1.81818181818182,1,6,5,4,5,4,4,2,4,3,4,3,1,2,5,1,6,1,2,2,1,2,1,1,1,1,1,1,1,4,1,1,1,2,1,1,4,11:10:25,2,2,4,3,5,5,5,5,5,5,4,3,4,5,6,6,5,6,4,2,44,4.5,3,2,4,4,4,4,4,3,2,1,1,4,4,4,3,4,4,2,2,1,4,1,4,3,3,4,5,2,2,2,1,4,2,2,3,2.84615384615385,2,2,2,1, ,4,4,4,1,8,4,8,8,1, ,2,8,3,1,3,1,2,8,2,AGT,ODTÜ KÖPRÜ, , , ,7,6, , , ,4,5,4,4,6,4,5,9,4,1,3,2,4,4,3,2,4,2,2,1,3,5,4,3,4,5,5,3,3,3,4,5,2,2,2,5,1,3,5,1,5,4,4,4,3,4,2,1,5,2,3,5,3,1,3,4,5,3,5,3,5,3,5,5,1,5,2.38461538461538,2,3,3,2,2,1,2,3,2,3,3,4,2,3,35.8,35.8,2,35.8,1,7,3,2,-.318677265414397,-1.300487479561,METU
1989,3,4,2,4,4,3,4,3,2,4,3,3,3,2,3,3,4,0,4.11111111111111,2.22222222222222,64,4.05555555555556, ,3.27272727272727,1,4,4,4,4,4,4,4,4,4,4,4,4,4,4,4,4,4,4,5,4,4,4,4,4,4,4,4,4,4,4,4,4,4,4,4,4,11:09:44,2.8,2,3,3,5,5,5,5,5,3,4,3,2,5,6,6,2,3,2,3,15,5.66666666666667,2.45454545454545,3,2,3,4,3,2,2,2,2,2,2,3,2,2,2,3,2,2,2,2,2,4,3,4,4,3,2,2,3,4,3,3,4,4,3.30769230769231,2,2,2,1, ,3,3,5, ,8,5,7,5,1, ,2,8,1, , ,1,1, ,1, , , , , , , , , , ,6,6,6,5,5,6,5,6,3,4,2,5,4,3,2,2,2,4,4,2,2,3,3,4,3,3,4,3,4,3,3,4,3,2,3,1,4,4,3,4,3,3,3,4,3,4,3,2,3,4,4,4,3,2,3,3,3,3,4,4,3,3,3,3,4,2,3.23076923076923,3,3,3,4,3,3,3,3,4,3,4,3,3,3,36.3,35.6,2,35.95,1,2,3,2,.219020240717669,1.23864207497744,METU
1980,3,2,5,3,2,2,3,2,1,3,3,2,1,2,2,2,3.55555555555556, ,4.44444444444444,2.88888888888889,43,2.33333333333333,4,2.63636363636364,1,5,3,2,2,7,5,1,3,2,5,2,5,6,5,2,2,6,1,2,2,2,2,1,2,4,2,2,2,2,3,2,3,2,2,2,5,11:09:09,1.8,2, ,3,5,4,5,4,2,5,5,5,5,4,4,7,2,3,2,1,40,4.33333333333333,2.54545454545455,4,2,3,4,3,2,1,2,3,1,3,4,4,4,3,3,1,2,1,4,1,2,1,2,1,3,1,1,3,2,4,1,3,2,2,2,1,1,1, ,4,4,4,1,8,6,4,4,1, ,2,2,3,1,8,1,1, ,2,Parti,Dernek, , , ,7,7, , , ,6,5,4,4,4,3,3,8,1,1,3,1,5,5,3,3,5,4,2,1,3,3,4,3,5,5,3,4,4,4,4,4,2,3,3,4,1,1,5,1,5,4,4,3,5,3,5,4,2,2,4,2,4,1,4,1,5,4,4,2,4,4,3,3,5,1,2.61538461538462,3,4,4,2,2,2,3,2,2,1,4,4,3,2,36,36.4,2,36.2,1,0,3,2,-.211137764187984,-.472510450907164,METU
1984,2,2,1,2,2,1,3,2,2,2,2,2,3,2,2,2,3.11111111111111,0,3.88888888888889,2.55555555555556,55,2.5, ,1.90909090909091,1,4,2,2,4,5,5,5,3,3,2,3,2,4,2,2,5,1,2,2,2,4,4,3,2,2,4,3,2,2,2,2,2,2,3,2,2,11:07:08,2.2,2,2,3,4,5,4,5,5,3,3,3,3,5,7,5,2,6,5,2,48,5.5,2.18181818181818,4,2,3,3,3,2,1,1,1,1,3,3,3,3,3,2,2,2,2,3,1,4,4,4,3,4,2,1,2,4,3,4,4,3,3.23076923076923,2,2,1,3,3,4,4,4,4,8,8,8,8,1, ,1, ,3,1,8,4,1, ,2,ODTÜ Türk Halk Blimi Topluluğu, , , , ,7, , , , ,7,5,5,5,5,6,6,8,2,3,2,3,4,2,4,4,2,4,4,3,3,3,2,3,4,3,4,5,4,3,4,4,1,2,2,3,4,4,3,4,2,3,2,2,3,3,2,2,3,4,3,3,4,3,4,3,4,4,4,2,3,4,2,2,2,4,2.84615384615385,2,4,3,3,3,2,2,3,3,3,4,3,3,2,36.6,36.6,2,36.6,1,0,3,2,-.641295769093637,-.306915045176397,METU
1991,2,2,2,2,2,2,3,2,2,4,2,2,2,3,2,2,3.44444444444444,2,4.33333333333333,2.88888888888889,62,2.11111111111111, ,2.27272727272727,1,5,3,2,4,6,5,5,2,4,2,5,2,2,2,2,5,4,2,2,2,2,2,2,2,2,2,2,2,2,2,2,2,2,4,2,2,11:05:32,2.2,2,2,3,5,3,5,5,4,5,4,4,4,5,6,5,4,4,4,4,15,4.66666666666667,3.45454545454545,4,4,4,4,4,2,4,4,2,2,4,4,4,2,4,2,2,2,2,4,1,4,3,4,2,4,4,3,2,2,4,2,3,3,3.07692307692308,2,2,1,1, ,4,4,4,4,4,1,7,4,1, ,2,8,1, , ,1,1, ,1, , , , , , , , , , ,3,5,5,5,5,5,5,7,2,2,2,3,4,4,4,2,4,3,4,2,3,4,2,3,4,4,4,4,4,3,4,4,2,2,3,4,2,3,3,2,4,4,4,4,3,2,3,3,4,4,4,3,4,2,4,2,4,4,4,2,4,4,4,4,4,4,2.84615384615385,3,3,3,3,2,2,3,3,2,3,3,3,3,4,35.8,36.5,2,36.15,1,5,3,2,-.318677265414397,-.693304325214855,METU
1993,4,3,1,4,1,3,4,4,4,3,3,1,1,3,2,1,4.5,0,4.11111111111111,3.55555555555556,62,3.27777777777778, ,3.09090909090909,2,6,5,3,4,5,7,4,5,5,5,3,3,5,5,5,5,2,4,2,3,5,4,1,3,1,4,4,2,2,5,2,3,6,5,2,5,11:05:21,1.6,2,10,3,5,4,4,3,4,5,4,4,4,4,2,4,2,4,2,2,19,5.16666666666667,3.27272727272727,3,4,4,3,4,2,3,3,3,3,4,4,3,3,3,4,3,4,4,4,2,4,4,3,2,3,3,2,2,3,4,2,2,3,2.84615384615385,1,2,2,1, ,3,3,5, ,8,7,7,7,1, ,2,8,1, , ,1,1, ,1, , , , , , , , , , ,3,6,6,6,5,5,5,6,3,5,4,4,4,4,4,3,4,4,4,2,4,4,3,2,4,4,4,4,4,4,4,4,3,3,2,2,2,4,3,3,3,4,2,3,3,3,3,2,4,3,4,3,4,2,4,2,4,4,4,5,4,2,2,3,2,4,3.07692307692308,3,3,4,3,3,3,3,3,3,3,3,3,3,3,36.3,36.4,2,36.35,1,5,3,2,.702947996236528,.465863514900519,METU
1994,2,5,3,3,2,4,5,4,2,4,4,1,2,2,2,2,2.22222222222222,0,3.33333333333333,2.55555555555556,64,2.38888888888889,10,3.45454545454545,1,3,2,2,2,5,2,2,2,2,2,5,1,2,2,1,3,1,1,1,3,3,2,2,2,2,2,2,3,4,3,2,3,2,3,2,2,11:02:51,1.8,2,12,3,5,2,5,4,2,4,2,2,4,5,4,6,2,4,2,1,18,4.16666666666667,2.09090909090909,4,4,1,4,2,1,1,2,2,1,1,2,3,3,3,2,3,2,1,4,1,4,5,4,3,2,3,3,2,2,3,2,3,3,3,2,1,4,1, ,4,4,4,1,2,2,4,3,1, ,2,8,1, , ,1,1, ,2,eğlence grupları, , , , ,6, , , , ,3,5,5,5,4,3,4,7,2,2,2,4,4,4,4,3,2,5,3,1,4,3,5,4,3,4,4,5,3,3,4,3,2,2,3,1,2,3,4,3,3,4,4,4,4,5,3,1,2,2,4,3,1,2,4,4,2,3,5,2,5,4,4,4,2,1,2.84615384615385,3,4,3,2,3,2,3,3,2,3,4,4,3,2,36.7,36.9,2,36.8,1,6,3,2,-1.50161177890494,-.417311982330242,METU
1995,3,2,3,2,2,4,4,2,2,3,2,2,2,2,2,2,2.5, ,2.77777777777778,1.33333333333333,64,2, ,2.63636363636364,1,3,1,1,1,4,1,2,4,2,2,1,3,4,5,3,3,4,1,1,2,1,2,6,1,1,1,2,3,2,3,2,1,1,2,1,4,11:02:30,2,1,2,3,3,4,4,3,4,3,2,1,1,3,3,3,1,1,3,2,29,4.33333333333333,2,3,2,2,3,2,1,1,1,2,3,2,1,1,1,3,2,1,1,1,1,2,2,2,4,2,2,2,1,3,3,3,4,3,3,2.61538461538462,1,2,2,1, ,4,4,5, ,4,1,5,5,1, ,2,8,1, , ,4,1, ,2,Biyogen Ekoloji,PFS Ankara, , , ,20,45, , , ,5,3,5,4,5,4,5,6,3,4,4,4,4,1,1,3,2,4,4,2,4,4,3,4,5,3,4,5,3,2,4,3,1,2,1,3,3,5,5,4,2,3,1,2,4,4,2,1,4,3,4,4,4,3,4,3,4,4,4,2,4,2,3,1,1,3,2.84615384615385,4,3,2,3,3,2,2,3,3,3,4,4,3,2,36.3,36,2,36.15,1,2,3,2,-1.23276302583891,-.8037012623687,METU
1993,2,3,1,3,4,2,4,2,1,4,1,3,4,5,2,1,4.11111111111111,0,4.33333333333333,3.33333333333333,71,1, ,2.45454545454545,1,7,5,3,5,4,6,3,5,5,3,6,1,2,2,5,5,5,2,1,1,1,1,1,1,1,1,1,1,1,1,1,1,1,1,1,1,11:00:12,3,2, ,3,5,5,5,5,5,4,1,4,5,3,2,2,1,2,2,1,14,5,2.45454545454545,5,3,5,1,3,1,1,1,1,1,5,2,4,4,4,5,1,4,1,5,1,4,1,5,3,2,1,2,2,1,3,4,3,3,2.61538461538462,2,2,2,1, ,4,4,4,2,2,1,7,4,1, ,2,3,1, , ,2,1, ,1, , , , , , , , , , ,3,5,6,6,6,4,5,7,1,2,2,1,5,5,5,5,5,1,1,1,1,5,2,2,3,5,5,5,5,5,5,5,1,1,1,5,1,2,2,1,1,5,1,5,4,5,1,3,4,4,2,5,5,1,2,4,3,3,5,1,3,5,3,5,1,5,3.61538461538462,4,3,4,4,4,4,3,3,4,5,3,4,2,4,35.8,37,2,36.4,1,7,3,2,.326559741944081,-1.79727369675331,METU
1993,4,4,4,4,3,2,4,4,4,4,2,2,2,2,2,3,3.88888888888889, ,3.22222222222222,2.88888888888889,64,3.16666666666667,16,3.54545454545455,1,6,4,4,5,4,5,2,6,6,4,4,1,4,5,1,6,1,2,1,2,6,6,4,2,2,3,2,2,2,2,2,5,5,6,1,4,11:00:10,2.2,2, ,3,4,3,4,3,3,3,3,3,3,5,7,1,6,7,5,4,21,6,2.45454545454545,4,4,2,4,4,1,1,1,2,1,3,3,4,4,3,4,2,2,1,3,2,3,4,4,4,3,3,4,4,2,4,4,4,4,3.61538461538462,2,1,4,1, ,4,4,5, ,3,2,5,5,1, ,2,8,1, , ,1,2,8,1, , , , , , , , , , ,7,5,6,6,6,6,6,7,4,1,1,4,4,4,4,3,5,4,4,1,2,4,4,3,4,4,4,4,4,2,3,2,2,3,2,2,2,4,4,3,2,4,4,4,3,2,4,2,4,4,3,4,4,1,4,3,4,4,4,2,5,4,4,3,3,4,3.15384615384615,3,4,5,3,3,2,3,3,3,3,5,4,1,3,35.3,36.4,2,35.85,1,6,3,2,.111480739491255,.355466577746674,METU
1994,2,4,3,2,2,3,2,2,1,2,1,2,2,4,2,3,4.27777777777778, ,5,2.55555555555556,71,3.72222222222222, ,2.18181818181818,1,6,2,4,5,6,4,4,6,4,4,4,5,4,4,5,4,2,4,2,4,6,4,4,4,4,4,4,2,4,3,2,4,6,4,2,4,10:59:45,2.6,2, ,3,5,5,5,5,5,5,5,5,5,5,6,6,2,2,2,1,16,5.33333333333333,2.54545454545455,2,2,4,2,4,2,2,2,2,2,4,4,4,2,3,2,2,2,2,2,2,4,3,5,5,4,3,2,4,4,4,5,4,5,4,2,2,2,1, ,4,4,5, ,8,8,3,2,1, ,2,2,1, , ,1,1, ,1, , , , , , , , , , ,6,6,6,6,4,4,4,6,1,1,1,3,5,4,3,3,5,5,4,1,2,4,4,4,4,4,4,3,3,3,3,3,2,2,2,3,1,3,5,2,3,3,3,4,3,4,2,2,4,4,4,3,2,1,4,4,4,3,2,1,3,5,4,3,1,3,2.61538461538462,1,3,3,3,3,3,3,3,3,3,2,4,2,2,36.2,37,2,36.6,1,8,3,2,.487868993783701,.9074512635159,METU
1995,3,3,1,4,3,1,4,4,4,3,2,2,2,3,4,1,3.83333333333333, ,4.33333333333333,3.44444444444444,69,2.22222222222222,15,2.90909090909091,1,3,3,2,3,6,6,5,2,3,4,7,3,4,2,2,6,5,3,4,4,2,2,2,1,1,2,2,2,1,2,2,2,2,2,2,5,10:58:19,2.4,2, ,3,5,5,5,5,5,4,2,5,3,5,8,6,1,5,1,2,13,4.66666666666667,4.45454545454545,5,5,5,5,5,5,5,4,1,4,5,4,4,4,4,4,2,4,1,4,1,2,2,3,2,2,2,1,2,3,4,2,3,2,2.30769230769231,2,1,4,1, ,4,2,4,1,6,5,5,3,1, ,2,8,1, , ,1,1, ,1, , , , , , , , , , ,6,5,5,4,4,4,4,7,2,2,4,2,4,4,4,2,3,4,1,2,2,4,4,4,4,3,4,5,4,2,4,4,2,2,2,4,1,3,5,1,5,2,2,3,2,2,2,2,2,2,4,2,4,2,4,2,4,3,4,2,4,4,3,4,2,3,2.92307692307692,3,3,3,3,3,3,3,3,3,3,3,3,2,3,36,36.3,3,36.15,1,6,3,2,.0577109888780489,-.58290738806101,METU
1996,2,2,2,2,3,2,2,2,2,2,2,2,2,2,4,2,3.94444444444444, ,5,2.88888888888889,64,4.16666666666667, ,2.09090909090909,1,4,4,4,4,5,5,5,5,4,4,4,4,4,4,2,4,1,4,2,4,4,6,3,4,6,4,4,4,2,6,4,4,6,6,2,4,10:58:06,2.4,2, ,3,5,5,5,5,5,5,5,5,5,5,8,6,1,4,5,5,27,6,3.18181818181818,5,3,5,4,5,1,2,1,3,1,5,3,3,4,3,2,1,4,3,3,2,2,4,5,5,5,2,4,2,2,4,4,5,5,3.76923076923077,2,2,2,1, ,4,4,5, ,6,3,3,3,1, ,2,8,1, , ,1,2,8,2,ODTÜ KÖPRÜ, , , , ,10, , , , ,5,7,7,7,5,5,5,7,3,1,1,1,4,4,3,4,4,3,4,2,2,4,4,3,3,4,4,3,5,3,3,4,3,2,3,4,2,3,5,3,4,4,4,4,4,5,5,1,2,4,4,3,2,2,4,4,2,2,4,4,4,3,4,4,2,5,3.07692307692308,4,2,3,3,3,4,3,3,3,3,3,4,3,3,34.5,36.2,2,35.35,1,6,3,2,.165250490104462,1.34903901213128,METU
1995,2,2,4,3,3,4,2,2,1,3,3,2,1,1,2,2,4.22222222222222,4,4,2.77777777777778,74,1.83333333333333,15,2.63636363636364,1,7,6,2,5,7,6,2,5,6,1,7,2,2,2,4,7,3,2,1,1,6,2,1,1,2,2,2,1,1,2,1,2,2,2,1,3,10:56:49,1.6,2,4,3,4,4,4,4,4,4,5,4,3,4,6,6,1,4,2,2,17,3.5,2.90909090909091,5,3,3,3,4,2,1,3,2,2,4,3,3,4,2,4,2,1,3,3,1,3,5,4,3,3,3,2,3,5,4,4,4,3,3.53846153846154,2,1,1,1, ,4,2,4,1,4,3,4,3,1, ,2,8,1, , ,1,2,6,1, , , , , , , , , , ,5,3,3,3,3,4,4,8,3,1,2,2,4,5,4,4,5,4,4,2,4,4,2,2,5,5,5,5,3,3,5,3,2,4,1,2,2,4,5,1,5,2,2,4,4,3,1,1,3,2,4,2,5,1,5,2,5,3,4,1,4,5,5,3,1,2,3,2,3,4,4,3,2,3,2,3,4,4,5,3,2,35.6,36.1,2,35.85,1,12,3,2,.434099243170495,-.969296668099468,METU
1997,2,4,4,4,4,2,4,2,2,5,2,3,4,4,3,2,3,0,4.55555555555556,2.44444444444444,64,2, ,3.18181818181818,1,3,2,2,5,6,4,2,2,2,5,2,2,1,2,2,5,6,1,2,2,2,2,2,2,2,2,2,2,2,2,2,2,2,2,2,2,10:56:36,3.2,2,28,3,5,5,5,5,5,3,5,4,4,4,6,4,5,2,5,5,17,5.5,2,2,2,2,2,2,2,2,2,2,2,2,2,2,2,4,2,2,3,3,2,2,4,1,1,1,3,1,1,1,4,1,1,1,5,1.92307692307692,1,2,2,1, ,4,4,5, ,2,2,4,4,1, ,2,8,1, , ,1,1, ,2,e-spor topluluğu, , , , ,5, , , , ,6,5,5,5,6,6,6,6,2,4,2,5,4,1,3,3,2,5,5,2,2,4,5,5,3,2,2,4,3,5,4,4,1,1,1,1,4,5,4,4,2,5,1,2,3,1,1,5,4,4,4,4,4,3,4,4,4,4,4,2,4,2,4,2,1,1,4.15384615384615,5,4,3,4,4,5,4,5,4,4,3,5,4,5,35.1,35.7,2,35.4,1,6,3,2,-.74883527032005,-.8037012623687,METU
1993,2,3,2,2,2,2,2,2,2,2,2,2,2,2,4,2,2.38888888888889,0,3.11111111111111,2,60,3.77777777777778, ,2.09090909090909,1,2,2,2,2,3,2,3,5,2,2,3,2,2,1,2,5,1,2,3,5,2,5,5,3,2,5,5,3,3,5,2,3,5,5,3,4,10:56:21,2.4,2,0,3,4,3,4,4,4,2,2,3,2,3,4,3,1,2,2,1,17,5.33333333333333,2,2,2,2,2,2,2,2,2,2,2,2,2,2,2,2,2,2,2,2,2,2,2,2,2,4,3,1,2,2,2,4,4,4,3,2.69230769230769,2,2,2,1, ,4,4,5, ,3,3,6,5,1, ,2,6,3,1,2,1,1, ,1, , , , , , , , , , ,5,5,5,5,6,6,6,7,3,1,3,4,4,4,2,2,4,2,2,1,2,2,4,4,2,4,3,4,3,2,2,2,2,4,2,4,2,2,4,2,4,4,2,4,3,2,4,2,2,2,4,4,2,1,4,4,4,2,4,4,4,2,4,4,2,4,2.84615384615385,3,3,3,3,3,2,3,3,2,3,4,3,2,3,36.3,36.3,2,36.3,1,9,3,2,-1.34030252706532,.962649732092823,METU
1996,5,3,5,3,1,5,5,4,3,3,5,1,1,3,1,2,6.66666666666667,1,3.88888888888889,1.88888888888889,70,2.94444444444444,15,3.81818181818182,1,7,7,7,7,7,7,6,7,7,7,7,6,7,5,7,7,7,5,7,2,7,2,4,3,2,1,1,5,2,1,1,2,6,2,2,3,10:56:10,1.6,2,2,3,3,4,4,4,4,5,5,4,2,5,6,6,1,4,2,1,36,5.66666666666667,1.90909090909091,2,2,2,2,2,2,1,2,3,1,2,1,4,1,3,3,1,1,1,2,2,1,1,4,1,2,1,1,1,5,1,1,5,1,1.92307692307692,2,1,2,1, ,4,4,5, ,4,1,7,7,1, ,2,8,1, , ,1,2,8,2,ODTÜ Psikoloji Topluluğu,Dergi 101, , , ,7,7, , , ,6,7,6,3,7,5,4,7,4,3,1,4,5,2,4,5,3,5,5,1,2,4,4,3,5,2,3,5,5,3,2,2,1,1,1,1,3,5,5,3,2,3,1,1,3,3,4,1,3,2,4,1,4,2,2,2,5,3,2,3,1,3,1,1,5,5,4.23076923076923,5,3,5,4,4,4,5,5,4,4,3,3,5,4,35.5,36.1,2,35.8,1,3,3,2,2.79996827015158,.134672703438984,METU
1995,2,2,2,3,4,4,3,3,2,4,2,2,4,3,2,2,2.88888888888889,0,4.44444444444444,2.77777777777778,71,2.44444444444444, ,2.81818181818182,1,5,2,1,3,6,6,2,6,1,5,2,5,1,2,1,1,1,2,1,2,1,3,5,2,4,4,2,2,2,2,2,4,2,1,2,3,10:54:06,2.6,2,1,3,5,5,3,5,5,5,4,4,4,3,2,4,1,3,1,2,20,5.33333333333333,2.72727272727273,3,4,2,3,4,2,2,3,2,1,4,4,3,2,3,2,2,3,2,4,2,4,2,4,3,4,4,2,3,1,4,3,4,2,3.07692307692308,2,2,4,1, ,4,4,5, ,6,2,6,6,1, ,2,7,1, , ,1,1, ,2,ODTÜ Sualtı Topluluğu,By Sanat Dans Okulu, , , ,3,3, , , ,7,5,4,5,6,5,6,6,3,2,4,3,5,2,4,2,4,2,2,2,2,4,3,3,2,5,5,5,5,3,5,5,1,1,1,4,4,4,4,2,3,5,3,5,4,4,4,4,4,4,4,3,5,2,4,2,5,5,5,2,2,5,3,2,2,2,2.92307692307692,3,2,4,4,3,2,3,3,4,3,2,4,3,2,36.6,36.1,2,36.35,1,8,3,2,-.856374771546463,-.362113513753319,METU
1983,3,2,3,2,3,4,4,2,1,4,3,3,2,2,3,1,3.77777777777778,0,2.22222222222222,3.11111111111111,49,1.55555555555556, ,2.81818181818182,1,3,2,2,2,7,6,2,5,3,2,6,5,5,2,5,5,5,1,2,1,2,2,1,1,1,1,1,2,2,2,1,1,2,3,1,2,10:53:48,2.2,2, ,3,2,2,3,2,2,2,2,2,3,5,7,6,1,4,3,2,25,6,3.36363636363636,2,4,4,2,4,3,2,4,4,4,4,4,4,4,5,4,1,3,1,2,2,4,3,3,2,2,3,1,1,4,3,3,4,2,2.69230769230769,2,2,2,1, ,4,2,5, ,5,4,5,5,1, ,1, ,3,1,8,2,1, ,2,Göçmen Dayanışma Ağı, , , , ,2, , , , ,7,6,5,5,7,6,7,6,2,2,2,3,5,1,2,2,2,4,3,2,4,4,3,3,5,5,5,5,1,4,4,1,1,5,2,4,4,4,4,2,3,4,2,4,5,3,4,2,4,2,4,3,3,2,3,4,5,5,4,1,3,5,2,2,2,4,3.23076923076923,4,3,3,3,3,3,3,3,3,3,5,5,3,3,36,36,2,36,1,6,3,2,.00394123826484211,-1.24528901098408,METU
1995,2,2,4,2,3,4,3,2,2,5,5,1,2,4,2,2,3.94444444444444,0,4.33333333333333,4.22222222222222,69,2.22222222222222, ,3.09090909090909,1,5,2,2,5,4,4,5,6,5,2,7,2,2,5,2,6,5,2,5,3,5,3,3,2,2,1,2,2,1,2,1,2,2,2,1,1,10:53:02,2.2,2,4,3,5,4,4,5,5,4,4,4,4,5,8,7,4,6,6,6,18,6.16666666666667,3.27272727272727,4,4,4,4,4,2,2,3,2,3,4,5,5,5,4,4,4,5,3,3,1,2,2,3,2,3,1,2,1,3,4,2,4,2,2.38461538461538,2,2,2,1, ,4,4,4,4,8,5,4,3,1, ,2,8,1, , ,1,1, ,1, , , , , , , , , , ,6,6,6,7,7,5,5,7,2,1,1,4,4,4,3,4,5,5,5,1,2,4,3,4,3,4,4,5,5,4,5,5,1,1,1,2,4,4,4,4,4,4,4,5,5,5,5,2,4,4,4,3,5,2,3,2,5,3,3,2,3,5,3,3,2,4,3.53846153846154,4,4,5,4,4,4,2,3,4,3,5,5,2,2,36.2,36.7,2,36.45,1,6,3,2,.165250490104462,-.58290738806101,METU
1992,3,4,4,4,3,3,4,4,2,3,4,2,2,2,4,2,4.38888888888889,0,2.22222222222222,2.66666666666667,70,3.44444444444444, ,3.45454545454545,1,5,5,5,5,5,5,4,3,3,3,3,5,5,5,5,5,5,3,3,3,3,3,5,5,3,3,3,3,3,5,3,3,5,3,3,3,10:49:38,2.4,2,13,3,2,2,2,4,2,2,2,2,2,4,4,3,2,2,2,1,17,4.16666666666667,2.90909090909091,3,3,3,3,3,3,3,3,3,2,3,4,4,2,2,2,2,2,2,4,2,3,2,3,2,3,2,2,2,3,4,2,4,3,2.69230769230769,1,2,2,1, ,3,1,5, ,4,4,4,4,1, ,2,3,1, , ,1,2,3,2,köprü sosyal sorumluluk, , , , ,3, , , , ,6,4,4,3,4,4,4,7,1,4,4,4,4,2,2,3,3,4,3,2,3,3,4,2,3,4,3,4,2,4,4,2,2,4,3,4,2,4,4,4,4,4,2,2,2,2,4,2,3,2,4,2,2,2,4,3,4,4,4,2,4,4,4,3,4,3,3.07692307692308,3,3,3,3,3,3,3,4,3,3,3,4,3,3,35.3,35.6,2,35.45,1,3,3,2,.595408495010115,.631458920631287,METU
1985,2,3,1,3,3,3,2,1,5,3,4,1,1,4,5,2,3.22222222222222, ,3.44444444444444,1.88888888888889,60,3.33333333333333, ,2.72727272727273,1,7,2,2,2,6,2,2,2,6,2,6,2,1,1,1,7,2,5,6,3,2,5,2,2,2,3,2,6,6,5,3,2,2,3,2,4,10:47:34,2.6,2, ,3,4,4,5,5,5,2,2,2,2,5,5,5,8,6,7,7,26,3.16666666666667,2.36363636363636,5,3,3,4,2,1,1,1,1,1,4,1,3,2,3,1,1,1,1,4,1,5,3,5,2,2,3,5,4,1,1,4,5,2,3.23076923076923,2,2,1,1, ,4,2,4,2,5,4,7,7,1, ,1, ,3,1,8,1,1, ,1, , , , , , , , , , ,5,3,3,3,3,2,2,7,2,3,2,3,5,2,4,4,2,1,1,2,2,2,3,5,3,1,1,4,5,3,2,4,2,2,2,2,3,1,1,2,4,4,2,4,5,2,4,2,3,3,3,3,3,3,4,3,4,4,5,2,4,4,5,2,5,3,3.69230769230769,3,4,4,3,4,3,4,4,4,3,4,4,4,4,36.5,36.6,2,36.55,1,9,3,2,-.533756267867223,.521061983477442,METU
1988,3,2,2,2,2,2,2,3,2,2,2,2,2,2,4,2,4.5,2,3.88888888888889,1,66,2.61111111111111, ,2.18181818181818,1,7,5,2,6,5,6,5,5,5,2,5,4,3,4,5,5,5,2,1,1,3,2,3,3,5,1,1,2,3,3,2,5,2,5,1,4,10:40:12,2.4,2,10,3,4,3,4,4,2,5,5,5,3,5,7,6,6,4,7,7,38,3.5,1.54545454545455,1,2,2,3,2,1,1,1,1,1,2,1,1,1,1,1,1,1,1,1,1,4,3,2,2,2,1,2,2,3,4,3,3,2,2.53846153846154,2,2,2,1, ,4,4,4,1,5,5,7,7,1, ,2,8,3,1,8,4,1, ,2,korev, , , , ,7, , , , ,6,3,3,3,3,3,3,8,3,1,2,3,5,5,5,5,5,2,3,1,3,4,4,3,4,5,4,4,2,4,4,1,2,5,2,5,1,2,5,2,4,3,3,5,4,4,4,2,3,3,4,2,4,1,4,1,5,5,5,4,4,3,4,3,2,4,2.15384615384615,2,3,3,2,2,2,1,2,2,2,3,4,2,2,36.7,36.7,2,36.7,1,4,3,2,.702947996236528,-.196518108022551,METU
1994,2,3,2,2,2,3,3,3,3,3,2,2,2,2,2,2,3.33333333333333,2,3.88888888888889,3.66666666666667,60,3.5,5,2.54545454545455,1,5,3,3,4,2,5,5,3,4,3,4,2,2,2,2,6,3,2,4,2,4,4,5,5,5,3,6,2,2,3,2,5,2,4,2,3,10:36:06,2,2,0,3,4,4,4,4,4,5,4,3,3,4,5,5,1,3,2,2,35,5.5,3.72727272727273,4,4,4,4,4,3,4,4,3,3,4,4,4,4,4,4,3,4,2,4,2,3,2,3,2,2,4,2,1,2,3,2,3,3,2.46153846153846,2,1,2,1, ,4,4,5, ,8,4,8,8,1, ,2,8,1, , ,4,1, ,2,odtülü aslanlar,odtü tekvando, , , ,7,7, , , ,5,6,6,6,5,5,5,6,3,2,3,4,5,5,4,4,5,4,4,1,4,4,3,2,5,5,5,4,4,4,5,2,2,2,2,4,1,3,4,3,4,4,3,4,4,3,2,2,2,2,4,4,4,2,4,3,4,4,4,2,4,4,4,4,4,2,2.61538461538462,4,3,2,2,3,2,3,3,2,2,3,4,2,3,36,36.1,2,36.05,1,9,3,2,-.42621676664081,.68665738920821,METU
1992,2,2,2,2,2,2,4,2,2,2,3,1,1,2,3,2,4.16666666666667,0,3.66666666666667,2.77777777777778,74,1.88888888888889,7,2.27272727272727,1,5,5,2,5,6,7,6,5,5,4,4,1,5,2,2,5,5,1,2,1,2,2,5,1,1,2,2,2,2,1,1,2,2,2,1,3,10:33:15,1.8,2,0,3,5,4,5,3,4,3,3,3,3,4,5,5,2,3,1,3,22,3.5,2,2,3,2,3,4,1,1,1,2,1,2,2,2,2,3,4,2,4,3,3,1,2,3,4,3,2,1,1,2,2,4,3,3,3,2.53846153846154,2,1,2,1, ,4,4,4,2,3,1,8,5,1, ,2,8,1, , ,2,1, ,2, biyogen, , , , ,7, , , , ,3,4,4,4,3,3,3,7,3,2,2,4,4,2,2,2,2,4,4,2,4,4,2,4,4,5,4,4,4,3,3,2,2,2,1,1,4,4,3,3,2,2,1,4,4,5,3,1,5,4,4,4,4,2,4,4,4,4,4,1,4,5,4,2,1,4,2.92307692307692,3,4,4,2,2,2,2,3,4,3,3,5,3,3,36.7,35.9,2,36.3,1,12,3,2,.380329492557288,-.914098199522545,METU
1972,3,4,3,4,3,4,3,2,4,3,2,4,3,3,4,2,4.38888888888889,1,4.44444444444444,3,64,2.88888888888889, ,3.18181818181818,1,6,5,5,4,6,2,5,5,5,5,5,4,3,3,3,6,5,2,2,3,2,6,3,3,2,6,2,2,2,3,2,3,2,2,4,3,10:33:07,3.2,2,1,3,5,5,5,4,5,5,4,4,3,3,6,5,3,3,4,4,31,4.16666666666667,3.09090909090909,5,3,4,3,4,1,1,3,3,4,3,3,3,4,4,4,1,2,4,2,1,3,5,2,3,2,3,3,3,5,3,3,3,2,3.07692307692308,2,2,1,2,8,4,2,4,4,6,3,6,3,1, ,2,2,3,1,8,1,1, ,2,1, , , , , , , , , ,6,4,4,4,3,4,4,9,1,1,1,5,3,1,4,4,3,4,4,2,3,4,4,4,4,4,3,5,5,4,4,4,1,1,5,2,2,3,3,4,3,4,4,3,4,3,3,3,3,3,4,4,4,1,5,2,4,4,3,2,4,4,3,3,2,4,2.84615384615385,3,3,3,3,3,3,2,3,3,3,3,3,3,2,35.4,36,2,35.7,1,2,3,2,.595408495010115,.0794742348620613,METU
1988,2,2,2,2,2,2,3,2,2,2,2,2,2,3,3,2,4.16666666666667,0,3.33333333333333,2.44444444444444,52,2.16666666666667, ,2.09090909090909,1,6,3,2,3,6,5,5,3,5,2,6,3,6,2,3,5,5,5,2,2,3,3,2,1,2,2,3,2,2,2,1,2,3,3,2,2,10:32:00,2.4,2,2,3,4,3,4,3,3,4,2,4,3,4,6,4,2,4,2,2,29,6,2.81818181818182,4,3,4,3,4,2,2,2,2,2,3,2,2,3,2,3,2,4,2,2,1,3,3,2,4,3,2,3,2,3,3,4,2,3,2.84615384615385,2,2,2,1, ,4,4,2,1,4,4,5,2,1, ,1, ,3,1,8,1,2,4,2, , , , , ,3, , , , ,7,6,6,6,6,5,6,8,1,3,2,4,4,4,1,4,2,5,4,2,2,4,4,2,4,4,4,4,3,2,4,3,1,2,2,1,4,4,4,2,2,4,2,4,2,2,4,2,3,3,4,3,4,2,4,2,4,4,4,2,2,4,3,2,2,4,3.15384615384615,3,4,3,3,3,3,3,4,3,3,3,4,3,3,36.4,36.5,2,36.45,1,3,3,2,.380329492557288,-.638105856637932,METU
1996,3,4,3,4,3,4,4,3,2,4,2,1,3,2,3,3,5,0,5,2.77777777777778,70,4.33333333333333, ,3.27272727272727,1,6,5,6,6,6,6,5,6,6,4,7,4,4,1,5,5,6,2,2,4,6,6,5,4,2,6,7,2,4,6,2,6,5,5,2,4,10:31:46,2.4,2,1,3,5,5,5,5,5,5,5,5,5,5,8,6,3,6,2,2,15,6.33333333333333,3.18181818181818,5,3,4,5,4,2,2,2,2,2,4,3,3,2,2,4,5,2,2,2,2,5,4,5,5,4,2,2,4,2,4,3,4,2,3.53846153846154,2,2,2,1, ,4,4,5, ,8,5,4,4,1, ,2,8,1, , ,1,1, ,1, , , , , , , , , , ,6,7,7,7,6,5,5,6,2,2,2,4,5,3,4,2,4,5,4,1,1,5,4,4,4,4,3,4,5,4,4,5,2,2,2,3,3,4,4,4,2,3,3,2,4,2,2,2,4,3,3,4,2,2,5,2,2,3,4,3,4,4,3,3,3,5,3.76923076923077,5,5,4,3,3,3,3,4,4,4,3,5,3,5,35.5,35.8,2,35.65,1,3,3,2,1.18687575175539,1.51463441786205,METU
1995,2,2,5,3,2,2,4,2,3,2,2,2,2,3,3,3,2.94444444444444,0,4.11111111111111,2.88888888888889,71,1.66666666666667, ,2.63636363636364,1,2,2,1,1,6,7,1,2,3,5,3,1,5,3,2,6,2,1,2,2,2,2,2,1,1,2,2,2,2,2,1,2,1,1,1,2,10:30:12,2.6,2,1,3,5,5,4,4,5,5,3,4,2,4,6,6,1,3,7,4,17,5.66666666666667,2.90909090909091,4,2,4,3,4,1,1,4,4,1,4,3,2,2,2,3,4,4,4,2,1,2,4,4,2,3,2,4,4,4,4,2,3,3,3.15384615384615,2,2,2,1, ,4,4,5, ,8,5,8,6,1, ,2,8,1, , ,1,1, ,1, , , , , , , , , , ,3,6,7,6,7,5,5,6,3,1,1,4,4,1,5,4,4,5,5,1,4,3,5,4,5,5,5,5,5,3,4,5,2,2,1,1,3,2,4,5,4,4,3,3,2,4,2,1,4,3,4,3,5,4,4,4,4,4,3,4,1,2,4,2,1,5,3.84615384615385,4,5,5,4,4,3,3,3,4,4,4,5,4,3,35.6,36.2,2,35.9,1,8,3,2,-.802605020933256,-1.13489207383024,METU
1996,4,5,4,4,4,4,4,4,2,5,2,2,2,3,4,3,5,0,2.77777777777778,3.55555555555556,70,3.83333333333333,18,3.81818181818182,1,6,5,6,6,7,7,6,7,6,5,6,5,4,2,2,6,2,2,4,3,6,4,7,4,4,5,4,3,4,3,2,6,2,2,2,4,10:29:24,2.8,2,15,3,4,2,4,4,3,2,1,2,3,4,6,3,3,2,2,3,12,5.33333333333333,2.81818181818182,3,4,3,3,4,2,2,1,2,3,4,5,4,4,4,3,2,3,3,4,2,2,2,3,2,3,4,3,1,1,4,2,4,3,2.61538461538462,1,1,2,1, ,4,4,5, ,2,1,6,5,1, ,2,3,1, , ,1,1, ,1, , , , , , , , , , ,4,6,5,6,6,5,4,6,2,2,2,5,5,3,3,2,2,5,4,1,2,4,4,5,2,4,4,4,2,3,4,2,2,4,2,2,3,4,2,4,4,4,2,2,2,1,5,2,3,2,4,4,2,3,4,4,3,3,2,2,5,4,4,2,2,3,3.23076923076923,3,4,3,2,3,3,4,4,2,4,3,4,4,3,36.7,36.4,2,36.55,1,3,3,2,1.18687575175539,1.01784820066975,METU
1996,3,2,1,3,2,3,4,4,1,3,2,2,2,4,3,4,6.11111111111111, ,1.88888888888889,2,64,3.77777777777778,7,2.54545454545455,1,7,7,6,7,6,7,7,7,6,5,7,4,7,4,6,7,7,3,6,2,6,3,4,2,4,2,2,3,3,6,6,2,4,4,2,7,10:27:52,3,2,5,3,3,1,3,2,1,2,3,1,1,4,7,4,6,6,5,1,6,4.66666666666667,1.45454545454545,2,2,1,2,2,1,1,1,1,1,2,2,2,2,2,2,2,2,2,2,2,3,3,1,4,4,1,4,3,3,2,3,3,4,2.92307692307692,2,1,2,1, ,4,2,5, ,3,1,1,1,1, ,2,6,1, , ,1,1, ,1, , , , , , , , , , ,6,5,3,5,5,4,5,6,1,1,3,2,5,4,3,2,5,3,3,1,2,5,4,5,4,3,2,2,1,4,1,1,3,5,1,2,1,2,5,1,5,4,5,2,2,2,4,1,4,4,4,2,5,2,2,2,2,3,3,3,4,2,1,2,4,5,3.61538461538462,4,4,5,3,2,2,4,4,3,4,5,4,3,4,36.8,37.1,2,36.95,1,2,3,2,2.26227076401952,.962649732092823,METU
1996,2,2,1,3,1,2,3,4,2,3,2,2,2,4,3,4,2.72222222222222,0,3.33333333333333,3.22222222222222,64,5.61111111111111, ,2.27272727272727,1,1,2,2,4,5,3,4,4,4,2,3,1,4,1,2,2,3,2,5,5,6,7,6,6,7,7,5,5,3,7,4,6,7,7,4,4,10:23:03,3,2,9,3,4,4,4,3,4,3,2,2,4,5,7,4,2,4,2,1,21,4.16666666666667,3,5,4,4,3,5,1,3,1,1,1,5,4,4,4,4,2,2,4,2,3,2,5,3,4,4,4,2,1,2,3,4,2,4,3,3.15384615384615,2,2,2,1, ,4,4,5, ,7,7,8,8,1, ,2,8,1, , ,1,1, ,1, , , , , , , , , , ,4,6,4,5,3,3,3,6,3,1,2,3,4,5,3,2,5,4,4,1,1,3,3,3,4,3,3,3,4,3,3,3,3,1,3,1,2,4,4,1,1,4,4,4,3,2,2,2,2,4,4,3,2,1,3,4,4,2,4,2,2,2,3,2,1,3,2.61538461538462,3,3,4,2,2,2,2,3,2,2,4,4,2,3,35,35.1,2,35.05,1,2,3,2,-1.01768402338608,2.78419919513127,METU
1992,4,5,3,4,4,4,5,4,3,5,4,1,1,2,5,2,6.27777777777778,0,5,1.33333333333333,64,1.94444444444444,20,4.09090909090909,1,7,7,7,7,7,7,7,7,6,4,7,6,5,7,7,6,7,2,2,2,2,2,2,1,1,2,2,2,1,2,2,2,2,2,1,5,10:19:25,2.2,2,10,3,5,5,5,5,5,5,5,5,5,5,5,7,2,2,4,3,11,5.83333333333333,2.81818181818182,5,4,4,5,4,1,1,1,1,1,4,1,1,1,1,4,1,1,1,1,2,1,2,2,4,3,1,4,2,2,5,5,5,4,3.07692307692308,1,1,2,1, ,4,4,5, ,7,3,4,2,1, ,2,8,1, , ,1,1, ,1, , , , , , , , , , ,7,6,5,4,7,6,6,6,2,4,4,5,5,2,2,2,2,5,5,1,4,4,3,5,2,5,5,5,5,3,4,4,1,1,1,3,3,4,4,4,3,1,1,5,5,4,3,1,4,4,2,5,5,3,4,4,5,5,5,2,4,5,5,3,2,3,3.61538461538462,4,5,4,3,3,4,3,3,4,3,5,4,3,3,35.8,36.1,2,35.95,1,6,3,2,2.42358001585914,-.858899730945623,METU
1993,3,3,1,2,3,4,4,2,3,3,4,1,2,2,3,1,2.44444444444444, ,4.11111111111111,2.44444444444444,68,1.05555555555556,4,2.90909090909091,1,2,2,1,2,6,2,1,2,2,2,4,1,2,2,1,4,6,2,1,1,1,1,1,1,1,1,1,1,1,1,1,1,1,1,1,2,10:18:42,1.8,2, ,3,5,4,5,5,4,4,2,4,4,5,7,6,5,6,5,7,22,5,3.18181818181818,4,3,4,4,4,2,2,2,4,2,4,3,2,2,3,2,2,4,2,2,1,3,2,3,2,3,1,2,5,2,3,3,2,3,2.61538461538462,2,1,1,1, ,4,4,4,2,3,3,5,5,1, ,2,8,1, , ,1,1, ,2,ODTÜ Capoeira Topluluğu, , , , ,6, , , , ,5,5,5,5,5,5,5,7,3,3,2,5,5,4,4,4,5,5,5,3,4,4,5,5,4,3,4,4,4,4,5,4,1,1,2,3,3,5,5,4,3,4,5,3,5,5,5,2,4,3,4,4,5,3,4,4,5,3,5,2,5,5,5,3,4,2,3.46153846153846,4,4,5,3,3,3,3,4,3,3,4,5,3,3,35.3,36.1,2,35.7,1,5,3,2,-1.28653277645212,-1.74207522817638,METU
1993,2,4,1,2,2,2,4,3,3,3,5,1,1,2,4,2,4.38888888888889, ,3.66666666666667,2.55555555555556,62,1.55555555555556, ,2.81818181818182,1,5,4,4,5,7,7,5,5,4,2,4,6,5,4,4,5,2,1,3,1,2,1,1,1,1,1,1,2,2,2,1,2,2,2,1,2,10:16:02,2,2, ,3,5,3,5,5,5,2,2,3,3,5,3,4,2,2,3,2,23,4.83333333333333,1.90909090909091,1,3,1,3,3,1,1,2,4,1,1,3,3,4,1,4,1,3,2,2,2,4,5,3,4,2,3,3,5,1,4,5,5,3,3.61538461538462,1,2,3,1, ,4,4,5, ,4,4,8,6,1, ,2,8,3,1,6,1,1, ,1, , , , , , , , , , ,5,5,5,5,4,5,5,7,3,5,1,5,5,1,5,5,2,5,4,3,3,5,5,3,3,5,4,5,3,4,4,4,1,1,1,2,4,4,2,4,3,2,3,2,4,5,3,1,4,3,3,3,1,4,5,3,4,5,5,3,3,3,3,3,1,1,2.61538461538462,3,2,4,2,1,4,3,2,3,2,3,2,3,2,35.8,36.4,2,36.1,1,5,3,2,.595408495010115,-1.24528901098408,METU
1994,1,3,3,5,2,3,2,3,2,3,2,3,3,3,4,3,4.05555555555556,0,5,2.88888888888889,64,3.55555555555556,10,2.63636363636364,1,4,3,4,3,5,3,6,4,4,4,4,4,5,5,2,5,5,3,3,3,3,4,6,5,5,5,5,2,3,3,2,4,3,3,2,3,10:15:53,3.2,2,0,3,5,5,5,5,5,5,5,5,5,1,3,3,3,2,2,1,12,4.66666666666667,3.36363636363636,4,4,4,4,4,3,2,3,3,3,3,3,3,3,4,4,2,2,3,2,2,4,3,5,3,4,2,3,2,2,3,2,4,4,3.15384615384615,2,1,2,1, ,4,4,5, ,4,1,5,5,1, ,2,5,1, , ,1,1, ,1, , , , , , , , , , ,5,5,5,5,4,4,4,6,3,2,2,4,4,2,2,3,2,4,4,2,3,4,4,4,4,3,4,4,4,4,4,4,3,4,2,2,4,4,4,4,2,4,2,3,4,3,4,3,3,2,3,3,2,3,4,4,4,4,4,3,4,4,4,3,2,3,2.84615384615385,2,2,3,3,2,3,3,3,3,3,4,4,3,3,35.8,36.5,2,36.15,1,6,3,2,.272789991330875,.741855857785132,METU
1995,2,2,2,2,2,2,2,2,2,2,2,2,2,4,2,2,3.55555555555556, ,4.44444444444444,3.88888888888889,60,1.72222222222222, ,2,1,6,3,2,5,6,6,5,2,3,2,7,2,2,1,1,6,3,2,1,1,2,2,2,2,1,2,2,2,1,2,2,2,2,2,1,2,10:14:56,2.4,2, ,3,5,5,5,5,5,4,3,4,4,5,6,6,2,4,3,3,36,6.66666666666667,3.36363636363636,4,4,4,4,4,2,3,3,2,3,4,4,4,4,4,4,4,4,3,4,1,4,4,3,2,4,2,2,2,3,4,2,2,4,2.92307692307692,2,2,1,1, ,4,4,4,1,6,3,6,5,1, ,2,8,1, , ,1,2,8,2,Ankara Gönüllü Takımı,Köprü, , , ,10,6, , , ,7,7,7,7,6,6,7,8,4,2,2,2,5,3,5,3,3,4,3,1,4,4,2,3,5,5,5,5,5,5,5,5,1,1,1,4,1,3,4,2,4,4,2,4,4,4,3,2,3,3,3,4,5,1,4,2,5,5,4,1,5,5,5,4,2,4,2.76923076923077,4,3,4,2,2,2,2,4,2,2,4,4,2,3,35.6,36.2,2,35.9,1,9,3,2,-.211137764187984,-1.07969360525331,METU
1991,4,5,3,3,5,3,4,3,4,3,4,2,2,2,2,1,6.05555555555556,2,3.22222222222222,2.44444444444444,60,3.33333333333333,15,3.72727272727273,1,7,7,6,7,7,7,7,7,1,5,7,6,6,7,7,6,7,2,5,3,7,3,4,2,2,3,3,4,1,4,2,2,2,5,3,5,9:59:31,1.8,2,1,3,3,2,4,4,5,4,1,3,3,5,7,6,6,6,5,6,17,4.5,1.45454545454545,2,2,2,1,2,1,1,1,1,1,2,2,3,2,2,3,2,3,3,2,2,2,2,2,2,3,5,1,2,1,2,2,2,2,2.15384615384615,2,1,2,1, ,4,4,5, ,3,2,6,6,1, ,2,8,1, , ,1,1, ,2,bkft, , , , ,3, , , , ,7,5,5,4,3,3,3,6,3,2,1,4,5,5,5,3,5,5,5,1,4,5,4,5,4,4,5,5,2,4,5,4,2,4,1,2,1,4,4,3,2,4,3,2,2,2,3,3,3,4,4,3,5,1,5,2,5,5,5,1,2,5,2,3,2,5,3.92307692307692,4,5,5,3,3,4,3,4,4,4,4,5,4,4,36.1,36.7,2,36.4,1,9,3,2,2.20850101340631,.521061983477442,METU
1995,2,4,1,3,3,2,3,4,4,2,2,2,2,3,2,2,3.66666666666667,0,4.22222222222222,3.22222222222222,56,4.16666666666667, ,2.72727272727273,1,5,2,2,4,3,4,4,6,4,5,4,2,4,3,5,5,2,2,6,6,4,6,5,5,6,4,4,3,2,7,2,5,3,2,2,3,9:55:40,2.2,2, ,3,4,4,4,4,4,5,5,4,4,2,3,4,1,2,3,2,15,3.83333333333333,2.09090909090909,2,3,1,3,2,3,1,2,1,2,3,4,4,4,4,4,3,2,1,3,1,4,5,5,2,4,2,4,4,4,5,2,4,3,3.69230769230769,1,2,2,1, ,4,4,4,4,3,2,4,3,1, ,2,6,1, , ,1,1, ,1, , , , , , , , , , ,3,5,5,4,3,3,3,7,2,3,3,4,4,4,2,2,4,3,2,4,3,4,4,3,4,4,3,4,4,2,3,3,3,2,3,4,2,3,4,1,4,5,2,2,3,1,4,3,3,3,4,4,2,2,3,2,5,5,4,2,5,3,3,3,1,3,2.92307692307692,3,2,3,3,3,3,3,3,3,3,3,4,3,3,34.9,35.5,2,35.2,1,4,3,2,-.103598262961571,1.34903901213128,METU
1994,3,3,1,3,2,3,4,3,3,4,2,2,3,2,4,3,3.61111111111111,2,3.66666666666667,2,78,3, ,2.81818181818182,1,4,2,2,5,5,6,1,6,2,3,4,2,5,2,4,6,4,2,6,5,2,3,4,4,3,3,3,5,2,3,2,2,3,1,1,2,9:50:48,2.8,2,3,3,5,4,3,4,4,4,3,3,3,4,5,3,3,3,2,4,17,3.83333333333333,2.90909090909091,4,2,4,4,3,2,3,2,2,3,3,1,2,2,2,2,3,3,1,2,1,4,5,4,3,4,2,3,5,3,4,3,5,4,3.76923076923077,1,2,1,1, ,4,4,4,1,5,5,4,4,1, ,2,6,1, , ,2,1, ,1, , , , , , , , , , ,4,4,4,4,4,3,4,7,2,3,4,4,5,3,3,4,2,4,3,2,3,4,4,4,3,5,4,5,4,3,4,4,2,2,1,4,2,4,4,3,3,1,2,3,4,5,4,4,3,5,4,3,3,3,4,3,3,3,4,3,4,2,3,3,3,1,2.61538461538462,3,2,2,2,3,2,3,4,2,2,4,4,2,3,36.3,36.9,2,36.6,1,8,3,2,-.157368013574777,.189871172015907,METU
1997,5,5,3,5,5,5,5,5,5,5,5,2,5,3,2,2,4.22222222222222, ,3,3.77777777777778,70,4.94444444444444, ,4.81818181818182,1,6,5,5,4,4,4,5,7,3,4,4,1,2,1,7,6,7,1,7,7,7,7,7,7,7,4,2,2,3,2,3,7,7,6,1,3,9:48:35,2.8,1, ,3,3,5,2,2,5,4,3,2,1,4,7,6,4,5,4,3,24,4.5,2.09090909090909,2,1,2,1,2,1,4,3,3,2,2,4,4,4,4,4,2,3,4,5,2,2,1,3,2,4,1,1,1,1,4,2,4,5,2.38461538461538,2,2,2,1, ,4,1,5, ,3,1,4,4,2,6,2,8,2,1,2,1,1, ,2,Kazaklar,Mescit topluluğu, , , ,2,5, , , ,5,4,4,3,6,5,6,8,2,2,2,4,4,4,4,2,5,5,5,2,1,2,5,5,3,1,1,1,1,3,1,1,3,2,3,1,3,5,5,3,5,2,5,5,4,3,2,2,4,2,4,3,1,1,4,4,1,1,5,2,4,5,5,2,2,4,3.23076923076923,2,4,4,2,3,4,3,4,2,3,2,5,4,5,36.7,36.5,2,36.6,1,3,3,2,.434099243170495,2.1218175722082,METU
1996,3,4,2,2,4,4,4,4,2,1,3,2,3,2,3,2,4.94444444444444,0,3.33333333333333,1.11111111111111,64,2.27777777777778, ,3,1,7,4,4,7,7,5,7,7,5,3,7,5,2,5,1,6,1,6,1,1,4,2,5,7,2,2,2,1,1,1,1,3,2,4,1,1,9:48:26,2.4,2,68,3,5,5,5,4,5,1,1,2,2,3,2,2,2,1,1,1,39,3.33333333333333,2.09090909090909,5,2,2,1,3,1,1,1,1,2,4,1,1,1,1,2,1,1,1,1,1,5,4,2,4,4,2,2,3,4,4,4,4,1,3.30769230769231,1,2,2,1, ,4,4,4,4,5,1,3,3,1, ,2,4,1, , ,2,2,8,2,ODTU GST,ODTU BKFT,ODTU BIYOGEN, , ,8,5,4, , ,1,5,4,4,3,3,3,8,2,4,2,5,4,1,3,4,2,5,5,3,3,5,3,4,4,5,5,5,5,5,5,5,1,1,1,1,5,5,5,5,5,3,2,1,4,2,2,2,4,3,4,4,5,4,4,4,5,5,5,4,4,5,5,3,3,4,2.69230769230769,3,4,3,2,2,1,2,3,2,3,5,4,3,2,34.6,35.8,2,35.2,1,2,3,2,1.13310600114218,-.527708919484087,METU
1997,2,4,2,3,4,2,4,2,2,3,3,2,2,2,2,2,4.16666666666667,0,4.66666666666667,4,70,2, ,2.81818181818182,1,7,3,5,6,6,6,2,6,6,2,7,1,4,2,2,6,2,2,1,1,2,2,2,2,2,3,2,2,2,2,2,2,3,2,1,3,9:45:43,2,2,0,3,5,4,4,4,5,5,5,5,5,5,7,6,2,4,4,4,27,5.16666666666667,3.81818181818182,4,4,4,4,4,4,4,4,4,2,4,4,4,4,4,4,4,4,4,4,1,4,4,4,4,3,2,3,3,2,4,3,3,4,3.30769230769231,2,2,2,1, ,4,4,4,4,8,5,5,5,1, ,2,8,1, , ,1,1, ,2,THBT, , , , ,20, , , , ,4,6,6,6,5,4,4,7,3,2,2,5,5,2,4,4,5,4,5,2,4,4,4,4,4,4,4,5,5,3,5,5,1,1,3,3,4,5,4,2,2,3,2,4,3,4,2,2,4,3,3,3,5,1,4,4,4,3,4,1,5,4,4,3,1,4,2.61538461538462,3,3,3,2,2,2,2,3,2,2,4,4,3,3,36.1,36.5,2,36.3,1,3,3,2,.380329492557288,-.8037012623687,METU
1993,2,2,4,2,2,2,3,3,2,2,2,2,2,4,2,2,2.33333333333333,0,4,2.44444444444444,74,1.72222222222222, ,2.36363636363636,1,5,2,1,1,5,5,2,2,2,1,3,1,2,1,2,5,1,1,1,2,1,2,1,1,1,2,2,2,2,3,2,1,2,2,2,2,9:44:49,2.4,2,6,3,4,3,4,4,4,5,4,4,4,5,6,6,4,3,4,5,21,6.16666666666667,3,4,4,4,4,4,2,2,2,2,2,3,2,2,3,2,4,2,3,2,2,1,4,4,4,4,4,3,2,3,4,4,4,5,4,3.76923076923077,1,2,1,1, ,4,4,4,1,3,1,5,5,1, ,2,8,1, , ,1,1, ,2,Astronomi Topluluğu,ANAÇEV, , , ,6,2, , , ,5,7,7,7,6,5,5,7,3,2,2,4,4,4,3,2,4,4,2,2,4,4,4,4,4,4,4,4,2,3,4,3,2,3,2,3,2,4,4,4,2,4,4,4,4,4,3,2,4,2,4,2,2,2,4,4,4,4,4,4,2,2,2,2,4,2,2.30769230769231,2,2,3,3,2,2,2,2,2,2,3,4,3,2,35.2,36,2,35.6,1,12,3,2,-1.39407227767853,-1.07969360525331,METU
1996,2,4,3,2,4,4,4,4,4,4,4,1,4,2,5,2,5, ,4,3.33333333333333,64,4.16666666666667,.5,3.54545454545455,1,6,5,6,6,5,5,5,6,6,4,6,4,4,3,6,5,5,3,6,5,6,5,6,4,4,3,2,3,4,4,3,5,6,4,2,3,9:42:06,2.8,2, ,3,3,4,4,4,4,5,4,4,4,4,4,4,2,3,3,4,18,6.16666666666667,3.36363636363636,4,4,4,4,4,3,2,2,2,4,4,4,4,2,3,4,2,3,4,4,2,4,2,4,4,2,2,2,2,2,3,2,2,2,2.53846153846154,2,1,2,1, ,4,2,5, ,3,3,6,6,1, ,2,8,1, , ,1,1, ,2,biyogen, , , , ,5, , , , ,7,6,6,6,6,6,6,6,3,4,2,4,4,2,4,4,2,4,4,2,3,4,5,4,4,4,4,3,3,4,3,2,3,4,3,2,4,4,4,4,4,2,2,2,2,3,3,2,4,4,2,4,4,4,4,4,4,4,4,4,4,4,2,2,2,4,3.84615384615385,4,4,4,3,4,4,4,4,4,4,4,4,4,3,35.8,36.2,2,36,1,2,3,2,1.18687575175539,1.34903901213128,METU
1995,2,4,2,3,3,3,4,3,3,3,2,2,3,3,3,3,3.11111111111111,4,4,3.55555555555556,60,3.05555555555556, ,2.90909090909091,1,2,4,4,2,5,3,4,4,2,4,3,3,3,2,2,3,3,3,5,3,3,3,2,3,3,3,3,3,2,3,2,2,4,5,3,3,9:41:35,2.8,2,6,3,4,4,4,4,4,4,4,4,4,2,2,2,2,2,2,2,12,3.66666666666667,1.54545454545455,3,3,1,2,1,1,1,1,1,1,2,4,4,4,4,4,4,3,2,3,1,4,4,2,2,3,2,3,2,3,4,2,2,4,2.84615384615385,1,2,1,1, ,4,2,4,1,3,3,6,4,1, ,2,8,1, , ,1,1, ,1, , , , , , , , , , ,5,4,3,4,3,3,3,7,2,3,3,4,4,3,3,3,3,4,2,3,4,4,4,4,3,4,4,4,4,3,4,4,2,2,3,4,4,4,4,3,2,4,3,2,5,4,4,3,3,5,4,4,4,2,4,3,4,4,3,2,3,3,3,3,2,2,2.61538461538462,3,2,2,3,4,2,2,2,4,3,3,3,2,2,36.2,36.3,2,36.25,1,9,3,2,-.641295769093637,.245069640592829,METU
1991,1,4,1,2,1,3,1,2,2,2,1,1,2,1,1,1,3.83333333333333,0,4,2.88888888888889,52,5.16666666666667, ,1.81818181818182,1,5,4,4,6,5,4,2,4,7,1,7,4,2,1,4,4,4,1,2,7,6,7,6,4,5,7,7,4,2,6,5,4,7,7,2,5,9:39:27,1.2,2,0,3,4,4,3,5,4,4,4,4,4,5,8,7,7,7,7,8,9,3,3.27272727272727,5,4,5,4,4,1,1,1,4,2,5,4,3,4,2,3,1,4,3,2,2,4,4,5,5,4,3,2,5,4,5,5,5,5,4.30769230769231,2,2,2,1, ,4,4,5, ,1, ,3,3,1, ,2,8,1, , ,1,1, ,1, , , , , , , , , , ,3,4,3,3,3,2,2,5,2,1,1,4,5,2,2,2,2,5,4,1,1,5,4,5,3,4,4,4,4,2,3,3,1,1,1,1,3,4,4,3,3,2,1,5,4,2,4,1,2,4,4,4,2,2,3,3,1,2,3,4,3,3,3,3,2,2,2.07692307692308,1,4,3,2,1,1,2,2,3,1,3,5,3,1,35.8,36.4,2,36.1,1,3,3,2,.0577109888780489,2.34261144651589,METU
1993,2,3,3,3,3,3,4,3,2,3,3,2,2,4,4,2,3.61111111111111, ,1,3.77777777777778,56,2.83333333333333, ,2.90909090909091,1,5,5,5,2,5,3,6,4,5,2,5,2,2,1,1,5,6,1,2,2,5,5,2,2,2,2,2,2,2,2,2,4,6,5,2,2,9:39:13,2.8,2, ,3,1,1,1,1,1,1,1,1,1,4,4,2,1,2,2,3,13,2.83333333333333,3.27272727272727,4,4,4,4,4,2,2,2,3,3,4,4,4,3,4,4,3,4,4,4,1,4,4,2,3,4,3,3,4,5,4,3,4,4,3.61538461538462,2,2,2,1, ,3,1,5, ,5,1,6,6,1, ,2,8,3,1,2,1,1, ,2, , , , , , , , , , ,2,3,3,3,3,3,3,7,2,2,4,5,2,2,5,5,1,5,5,1,3,4,4,4,3,3,3,4,1,2,4,2,2,5,1,1,5,5,3,5,3,1,1,1,3,3,4,2,4,4,4,4,3,2,4,4,1,5,4,3,2,4,3,4,4,4,3,3,3,3,3,2,2,4,3,3,3,4,5,3,3,36.6,36.6,2,36.6,1,4,3,2,-.157368013574777,.0242757662851389,METU
1997,4,2,2,2,2,2,3,4,2,4,2,2,3,4,2,2,4.27777777777778,0,3.22222222222222,3.33333333333333,69,2.22222222222222, ,2.63636363636364,1,6,6,6,6,7,6,6,2,6,2,6,2,2,2,2,6,2,2,2,2,2,2,2,2,2,2,2,2,2,2,2,2,5,3,1,3,9:37:52,2.6,2,5,3,4,3,4,3,4,2,2,3,4,4,4,6,2,3,2,1,24,5.66666666666667,3.72727272727273,5,4,4,5,4,2,4,2,2,4,5,2,3,3,4,4,4,4,2,4,1,4,2,4,2,4,2,3,2,3,4,2,4,2,2.92307692307692,2,2,2,1, ,4,4,4,1,5,3,8,8,1, ,2,8,1, , ,1,2,3,2,lodos grubu, , , , ,3, , , , ,3,6,6,6,7,6,6,8,3,2,2,4,4,2,4,2,2,5,5,2,3,4,2,4,4,4,4,4,2,2,4,2,2,4,1,2,4,4,4,4,4,4,3,3,4,2,2,2,4,4,4,4,4,4,4,4,4,4,4,2,4,5,4,2,2,4,3,3,4,4,2,2,3,2,3,2,3,5,4,3,3,36.2,36.6,2,36.4,1,6,3,2,.487868993783701,-.58290738806101,METU
1996,2,3,2,3,2,2,2,3,2,2,2,2,2,4,3,2,4.27777777777778,0,5,2.33333333333333,69,3.55555555555556, ,2.27272727272727,1,6,3,2,4,6,5,5,4,6,3,4,4,4,5,3,6,5,2,3,2,5,2,5,5,5,6,5,2,2,3,2,3,5,5,2,2,9:37:50,2.6,2,2,3,5,5,5,5,5,5,5,5,5,4,3,5,2,3,4,4,18,4.5,2.81818181818182,4,4,2,4,4,1,2,3,3,2,2,2,3,2,2,3,2,3,2,2,2,5,4,4,4,4,3,4,4,3,4,4,5,4,4,2,2,2,1, ,4,4,4,1,7,5,4,4,1, ,2,8,1, , ,3,1, ,1, , , , , , , , , , ,5,6,5,4,4,3,3,7,2,2,2,3,4,4,4,4,4,4,4,1,2,4,3,4,4,4,4,4,5,4,3,3,2,2,2,3,2,4,4,2,4,4,3,5,4,4,3,2,3,2,4,4,2,2,3,2,4,4,4,2,4,4,3,2,4,2,2.69230769230769,3,3,4,3,3,2,2,2,2,3,3,4,2,3,35.4,36.5,2,35.95,1,6,3,2,.487868993783701,.741855857785132,METU
1995,2,2,2,2,2,2,2,2,4,2,2,1,1,1,3,1,4.22222222222222,0,3.55555555555556,2.66666666666667,60,3.16666666666667,20,2.18181818181818,1,5,3,3,5,7,5,5,4,5,2,4,5,2,5,7,4,2,3,4,5,6,1,3,2,2,1,1,3,2,4,3,2,5,6,1,6,9:34:29,1.4,2,5,3,4,2,4,4,3,5,3,4,3,4,7,5,1,5,7,5,12,4.16666666666667,2.90909090909091,3,3,3,3,2,2,2,4,3,4,3,2,3,4,3,2,2,4,2,2,2,2,4,3,1,4,3,3,2,4,5,1,5,5,3.23076923076923,1,1,2,1, ,4,4,5, ,3,3,4,3,1, ,2,8,1, , ,1,1, ,1, , , , , , , , , , ,7,4,3,3,4,4,4,6,2,4,2,5,5,3,3,4,4,5,4,2,4,4,5,3,4,3,3,4,2,2,4,3,2,4,4,2,4,5,3,4,2,5,2,5,5,4,5,1,3,4,5,2,2,2,3,3,4,4,2,5,3,1,3,2,2,4,2.46153846153846,2,3,3,2,2,2,3,2,2,2,4,4,3,2,36.4,36.4,2,36.4,1,9,3,2,.434099243170495,.355466577746674,METU
1993,3,3,3,3,3,3,3,3,3,3,3,3,3,3,3,3,4,0,4,2.44444444444444,64,3.94444444444444,3,3,1,4,4,4,4,4,4,4,4,4,4,4,4,4,4,4,4,4,4,4,4,4,4,4,3,4,4,4,4,4,4,4,4,4,4,4,4,9:32:38,3,2,3,3,4,4,4,4,4,4,4,4,4,1,3,2,2,1,2,2,12,2.83333333333333,2.18181818181818,2,2,2,2,2,2,2,2,2,2,4,2,2,2,2,4,2,2,2,4,2,3,1,5,2,3,2,2,1,1,2,3,3,2,2.30769230769231,1,1,2,1, ,4,4,5, ,3,1,5,5,1, ,2,4,1, , ,1,1, ,1, , , , , , , , , , ,3,2,4,3,2,3,3,6,2,2,2,2,4,3,3,3,3,4,2,2,3,4,4,2,4,4,4,4,4,4,4,4,2,2,2,3,2,4,4,2,2,4,3,4,4,2,4,2,4,2,4,4,3,2,4,3,4,4,4,2,4,3,4,4,3,2,3.07692307692308,3,3,3,3,3,3,3,3,3,4,3,3,3,3,34.6,36,2,35.3,1,2,3,2,.219020240717669,1.12824513782359,METU
1996,2,2,3,3,4,4,4,3,2,4,2,1,2,1,1,1,3.05555555555556,0,2.55555555555556,1.44444444444444,52,1.11111111111111,7,3,1,6,1,1,4,5,6,3,2,3,2,6,1,3,2,1,1,7,1,2,1,1,1,1,1,1,1,1,1,1,1,1,1,1,1,2,1,11:41:53,1.2,2,4,2,3,3,3,5,4,1,1,2,1,4,5,3,2,3,4,4,37,2.66666666666667,2.27272727272727,5,2,4,3,4,1,1,1,1,1,2,1,1,2,1,2,1,1,1,3,1,1,1,2,1,4,3,1,1,3,2,1,1,3,1.84615384615385,1,1,2,1, ,4,4,4,1,4,3,8,7,1, ,2,8,1, , ,1,2,6,2,AEGEE,BKFT,CİSST, , ,25,4,3, , ,3,2,3,3,3,2,2,8,4,4,2,4,5,2,3,5,2,5,5,2,4,4,5,5,3,4,5,4,2,3,4,4,2,4,2,1,4,5,4,4,2,5,2,2,5,3,4,3,3,2,5,4,5,3,3,4,5,5,5,2,5,2,5,2,4,2,3.30769230769231,4,3,2,4,2,2,4,4,4,2,4,5,5,3,36.2,36.1,2,36.15,1,3,3,2,-.695065519706843,-1.68687675959946,METU
1970,2,2,1,3,2,1,3,2,1,1,1,2,1,2,1,2,3.94444444444444,6,3.77777777777778,3.33333333333333,55,2.33333333333333,2,1.72727272727273,1,7,5,5,6,6,5,5,5,6,1,5,3,4,2,2,2,1,1,3,2,2,2,2,2,2,3,2,2,2,3,1,2,2,2,2,6,11:22:00,1.6,2,0,2,4,4,4,3,3,5,5,4,2,4,6,6,1,4,1,1,40,3.83333333333333,3.72727272727273,5,5,5,4,5,1,3,2,4,2,5,4,4,4,4,4,1,4,2,3,2,4,3,4,2,4,2,1,3,3,3,3,4,4,3.07692307692308,2,1,1,2,2,4,4,4,2,2,2,7,7,1, ,1, ,3,1,8,8,1, ,2,Şiddetsiz İletişim, , , , ,5, , , , ,4,4,5,5,3,2,2,8,3,3,3,4,4,1,5,4,1,3,3,2,4,4,4,4,4,3,3,4,2,2,3,2,1,4,3,4,3,4,4,3,2,3,2,2,2,2,2,2,3,4,4,2,3,4,3,4,5,3,4,5,2,5,2,2,1,4,3.15384615384615,4,3,3,3,3,3,3,4,3,3,2,4,4,3,35.9,36.4,2,36.15,1,0,3,2,.165250490104462,-.472510450907164,METU
1995,2,3,1,3,3,2,3,3,4,3,4,2,2,3,4,3,4.16666666666667,4,3.33333333333333,2.11111111111111,66,3.61111111111111,3,2.81818181818182,1,5,3,6,5,6,4,2,4,5,4,3,5,4,4,2,6,5,2,3,5,5,6,6,2,2,5,5,3,2,3,3,2,3,5,2,3,11:21:24,2.8,2,10,2,4,4,3,3,4,4,2,3,3,5,5,5,2,4,1,1,27,5.66666666666667,2.90909090909091,4,4,4,4,4,2,2,1,2,3,2,2,2,3,2,4,1,1,1,3,1,3,3,4,3,2,2,4,3,2,3,2,3,4,2.92307692307692,2,1,2,1, ,4,4,4,4,4,1,7,7,1, ,2,8,1, , ,1,1, ,2,öğrenci topluluğu,öğrenci topluluğu, , , ,4,5, , , ,6,6,6,6,5,5,4,7,3,1,4,2,4,4,3,2,4,2,4,1,2,4,4,4,4,3,3,4,3,3,4,3,2,3,2,3,3,4,4,2,5,5,4,3,3,2,4,2,3,4,4,2,4,2,4,2,4,4,4,3,4,4,4,4,2,4,2.69230769230769,3,3,3,2,3,2,3,3,3,3,3,3,2,2,36.7,36.5,2,36.6,1,5,3,2,.380329492557288,.797054326362055,METU
1994,2,3,4,4,2,4,5,5,2,4,5,3,1,2,4,1,5.61111111111111,1,1.88888888888889,4,72,3.83333333333333,3,3.63636363636364,1,2,6,6,7,6,7,6,6,6,6,7,7,5,6,6,6,2,4,2,2,6,4,6,5,5,5,2,2,1,2,2,5,6,6,5,3,11:14:40,2.2,2,2,2,2,2,2,2,3,2,2,1,1,4,8,5,5,8,6,5,9,4.5,3.90909090909091,4,4,4,4,4,4,3,4,4,4,4,4,4,4,4,4,4,4,4,4,1,2,2,4,3,4,1,2,1,2,4,1,3,4,2.53846153846154,2,1,2,1, ,4,4,4,1,1, ,2,2,1, ,2,5,1, , ,1,1, ,1, , , , , , , , , , ,6,5,5,4,4,3,3,6,2,4,2,5,5,3,2,5,1,5,4,2,3,4,5,3,4,4,4,4,2,4,4,2,4,4,4,2,3,4,4,2,4,2,2,1,4,3,3,3,4,4,4,4,4,2,2,4,4,4,4,2,5,5,4,4,1,5,4.23076923076923,5,5,5,3,3,4,4,5,4,4,5,5,3,5,36.6,36.8,2,36.7,1,8,3,2,1.77834300850066,1.01784820066975,METU
1975,2,2,2,2,1,4,1,1,1,1,2,1,1,3,1,2,4.77777777777778,0,4.33333333333333,3.33333333333333,66,4.11111111111111, ,1.72727272727273,1,6,2,6,5,7,7,5,7,6,5,6,2,6,2,5,6,2,1,5,6,3,6,6,2,5,6,5,2,1,3,1,5,3,3,6,6,11:09:22,1.6,2, ,2,5,3,3,4,5,5,4,5,5,5,6,6,5,5,5,5,29,3.83333333333333,3,3,4,3,3,4,2,2,3,3,3,3,4,3,2,4,4,3,2,4,4,2,5,5,5,5,5,5,4,4,4,5,3,5,2,4.38461538461539,2,2,2,1, ,4,4,5, ,4,3,3,3,1, ,1, ,3,8,8,2,1, ,1, , , , , , , , , , ,4,4,3,4,4,4,4,6,1,5,1,3,5,3,2,4,2,5,5,1,3,4,2,4,5,5,1,5,4,5,5,4,1,1,1,1,2,5,5,2,2,4,1,2,4,4,1,1,4,3,3,2,2,1,4,2,5,5,4,1,5,5,1,2,1,4,3.38461538461538,4,4,4,3,3,3,3,4,4,3,4,4,2,3,35.7,36.6,2,36.15,1,5,3,2,.97179674930256,1.29384054355436,METU
1984,2,2,1,2,2,3,2,2,2,2,2,2,1,2,2,1,2.22222222222222,0,3.88888888888889,3.88888888888889,64,2.16666666666667,20,2,1,2,2,2,2,6,1,4,3,2,2,2,2,2,2,1,2,1,2,6,1,2,2,2,2,1,2,1,1,2,3,2,1,3,5,1,2,11:08:39,1.6,2,0,2,5,4,4,4,4,4,2,4,4,4,6,2,1,1,1,6,31,4.5,3.36363636363636,4,4,4,4,4,1,2,2,4,4,4,4,4,4,4,4,3,4,4,4,1,3,4,5,2,4,3,3,4,3,4,4,3,3,3.46153846153846,1,1,4,1, ,4,4,5, ,8,8,8,1,1, ,2,8,3,8,8,1,1, ,1, , , , , , , , , , ,4,5,5,5,4,4,4,7,2,4,2,3,5,3,4,4,3,4,4,2,3,4,2,2,4,4,4,4,4,3,4,4,2,2,2,3,3,4,4,3,2,2,2,2,4,3,2,2,3,3,4,2,3,2,4,3,3,4,4,2,4,3,3,3,2,2,2.84615384615385,3,3,3,2,3,3,3,3,3,3,3,4,2,3,36.6,36.3,2,36.45,1,6,3,2,-1.50161177890494,-.638105856637932,METU
1995,2,2,2,2,2,3,2,2,3,2,2,2,2,4,2,1,3.38888888888889, ,4.33333333333333,2.88888888888889,71,1.44444444444444, ,2.18181818181818,2,5,2,2,5,7,6,5,5,2,1,2,2,2,2,2,5,4,2,1,1,3,1,2,2,2,1,1,1,1,1,1,2,1,1,1,3,11:07:17,2.2,2, ,2,5,2,5,4,3,5,5,5,5,4,8,7,6,6,6,6,15,3.5,2,2,2,2,2,2,2,2,2,2,2,2,5,5,2,5,2,3,1,1,2,2,3,1,4,3,3,3,1,1,1,3,2,1,4,2.30769230769231,2,2,2,1, ,4,4,5, ,8,4,4,3,1, ,2,8,1, , ,3,1, ,1, , , , , , , , , , ,2,5,4,4,3,3,3,6,2,1,3,3,5,4,5,3,4,2,2,1,3,5,4,3,4,5,5,5,5,3,5,5,1,1,1,5,1,2,4,1,4,5,2,4,3,1,3,4,4,4,5,5,5,1,4,4,5,3,5,3,5,5,5,3,1,1,3.23076923076923,3,4,4,3,3,3,4,3,3,3,3,4,3,3,36.4,35.5,2,35.95,1,7,3,2,-.372447016027604,-1.35568594813793,METU
1992,1,1,1,1,3,1,3,1,1,1,2,2,1,2,2,2,2.72222222222222,0,4.66666666666667,4,66,3, ,1.45454545454545,1,7,1,1,3,4,7,2,1,4,1,4,2,1,7,1,1,1,1,7,1,1,5,2,1,2,6,7,1,1,1,1,4,5,7,1,1,11:04:04,1.8,2,0,2,5,4,4,5,5,5,5,5,4,5,6,5,2,6,2,2,27,5,4,4,4,4,4,4,4,4,4,4,4,4,4,5,4,5,5,3,4,1,5,1,5,5,5,3,5,5,4,2,4,5,4,5,3,4.23076923076923,2,2,1,1, ,4,4,4,4,2,2,1,2,1, ,2,5,1, , ,1,2,4,2,odtü tenis topluluğu,odtü tiyatro, , , ,2,10, , , ,5,4,4,4,7,6,6,8,2,1,1,1,5,5,3,5,1,3,4,1,3,4,4,1,5,5,5,5,5,5,5,5,1,1,1,4,1,2,2,1,5,4,1,3,4,5,2,2,3,3,2,2,5,1,5,1,5,5,5,1,4,4,3,2,1,5,2.30769230769231,2,3,5,1,3,1,1,3,4,2,2,3,1,2,36.4,36.7,2,36.55,1,5,3,2,-1.01768402338608,.189871172015907,METU
1993,2,2,1,1,2,4,4,1,3,3,1,2,2,3,4,2,5.11111111111111,0,4.66666666666667,3.77777777777778,71,4.27777777777778, ,2.18181818181818,1,6,5,6,6,7,5,2,7,6,3,7,5,5,2,7,4,6,3,6,2,4,6,6,4,4,6,3,3,3,2,2,6,6,6,4,4,11:02:29,2.6,2,2,2,4,5,5,5,5,5,5,4,4,5,6,5,7,4,5,3,34,5.16666666666667,3.27272727272727,3,4,3,4,4,3,3,3,2,4,3,4,4,3,4,4,4,4,3,4,2,3,3,5,4,4,3,5,1,2,2,4,5,2,3.30769230769231,2,2,2,1, ,4,4,5, ,3,3,6,6,1, ,2,6,3,8,3,1,2,3,2,gönüllü, , , , ,5, , , , ,6,7,6,5,3,4,6,8,3,4,2,4,1,1,3,4,2,5,4,2,4,2,5,3,5,5,3,3,5,3,4,4,3,1,3,1,4,3,3,4,3,5,4,5,5,5,4,4,4,3,4,3,2,3,4,4,4,3,3,4,4,4,4,2,4,3,3.46153846153846,3,4,4,3,2,3,3,4,3,4,5,3,3,4,36.5,36.5,2,36.5,1,7,3,2,1.2944152529818,1.45943594928513,METU
1994,4,4,4,3,4,4,4,4,2,4,3,3,3,2,2,2,4.33333333333333, ,3.44444444444444,3.66666666666667,72,4.05555555555556, ,3.63636363636364,1,5,5,2,6,6,3,5,6,3,4,2,6,4,2,6,5,6,2,6,6,4,3,6,4,2,4,2,6,3,6,4,2,5,3,4,3,10:57:48,2.4,2, ,2,3,4,2,4,5,4,4,3,2,5,7,5,2,1,2,1,16,5.66666666666667,3.54545454545455,5,5,5,5,4,2,4,2,1,2,4,4,4,4,4,4,3,4,2,4,2,2,4,2,3,2,3,3,2,3,4,4,1,4,2.84615384615385,1,2,3,1, ,4,4,5, ,6,3,7,7,1, ,2,8,1, , ,1,1, ,1, , , , , , , , , , ,7,6,6,6,4,5,6,6,3,3,3,2,4,2,3,4,3,2,2,2,3,3,2,2,4,4,4,4,4,4,4,4,4,3,3,4,3,4,4,2,4,4,2,2,2,4,1,1,4,4,4,4,4,2,4,2,4,3,4,1,1,4,2,3,3,2,3.53846153846154,4,4,4,4,4,3,3,3,4,4,3,5,4,2,35.8,36.4,2,36.1,1,8,3,2,.541638744396908,1.23864207497744,METU
1995,2,4,3,3,2,4,4,4,3,4,3,2,3,3,2,2,4.11111111111111, ,3.66666666666667,2.77777777777778,69,3.88888888888889,15,3.27272727272727,1,4,4,4,4,4,4,4,4,4,4,4,4,4,4,4,4,6,4,4,4,4,4,2,4,4,4,4,4,4,4,4,4,4,4,4,4,10:57:42,2.4,2, ,2,4,3,4,3,3,4,4,4,4,5,4,5,3,1,1,1,12,6.16666666666667,2.18181818181818,2,2,2,3,2,1,4,3,1,2,2,2,2,2,4,4,2,3,2,4,2,2,1,1,2,3,1,2,2,2,2,2,3,2,1.92307692307692,1,1,2,1, ,4,4,5, ,5,2,6,4,1, ,2,8,1, , ,1,1, ,1, , , , , , , , , , ,6,7,5,6,7,6,5,6,2,4,3,4,4,4,2,3,4,4,3,2,3,4,4,3,4,4,4,3,3,3,3,3,4,2,3,3,4,2,2,4,3,4,3,4,2,3,2,3,4,4,4,4,3,2,3,2,3,3,4,2,2,3,2,3,3,3,3.30769230769231,4,4,3,3,3,3,4,4,4,3,3,3,2,3,36.5,36.5,2,36.5,1,6,3,2,.326559741944081,1.07304666924667,METU
1994,3,4,2,3,2,3,5,4,3,4,2,2,3,4,4,1,3.05555555555556,0,5,2.33333333333333,62,3.16666666666667,20,3.18181818181818,1,3,3,3,3,3,3,3,4,2,3,1,3,3,6,3,3,4,2,3,3,2,2,4,4,3,3,2,2,2,6,2,3,5,4,4,3,10:51:06,2.8,2,8,2,5,5,5,5,5,5,5,5,5,1,3,2,2,2,4,1,23,4.83333333333333,2.54545454545455,3,4,2,3,2,2,2,2,2,4,2,2,2,2,3,2,2,3,1,4,1,2,1,1,1,3,1,2,2,1,2,1,3,3,1.76923076923077,1,1,2,1, ,4,4,4,1,3,2,7,7,1, ,2,5,3,4,3,1,1, ,1, , , , , , , , , , ,7,4,5,4,6,3,7,8,3,4,4,3,4,2,2,3,3,4,4,3,3,3,4,3,4,4,4,4,4,4,4,4,4,2,3,3,4,4,4,3,4,5,2,2,3,3,4,2,3,3,4,3,4,2,3,4,4,4,4,4,4,4,4,4,3,4,2.46153846153846,3,3,3,1,2,2,3,3,1,2,3,4,3,3,35.9,36.5,2,36.2,1,5,3,2,-.695065519706843,.355466577746674,METU
1996,5,5,2,5,2,4,5,5,1,5,2,1,1,2,5,1,4.61111111111111, ,4.88888888888889,4.22222222222222,64,3.61111111111111, ,3.72727272727273,1,6,2,2,6,7,7,6,7,6,2,6,2,2,7,2,4,7,2,2,2,7,7,7,7,1,6,2,2,1,2,2,7,2,6,1,1,10:48:10,2,2, ,2,5,5,5,4,5,5,5,5,5,5,8,6,6,6,6,5,32,6.5,3.90909090909091,4,5,4,5,4,2,4,4,3,4,4,4,5,4,5,5,4,4,3,4,2,3,3,4,4,2,2,3,2,2,5,3,5,4,3.23076923076923,2,2,2,1, ,4,4,5, ,4,8,4,8,2,8,2,8,1, , ,3,1, ,1, , , , , , , , , , ,6,7,6,7,7,6,5,7,4,1,1,4,5,5,2,2,5,5,4,4,5,5,2,2,5,5,5,5,5,5,5,5,4,2,2,2,2,5,5,2,5,3,5,2,5,4,2,2,5,2,4,5,2,2,5,5,4,2,5,1,4,5,5,4,1,1,3.53846153846154,4,4,4,3,3,3,3,4,3,3,5,5,3,4,36.2,36.4,2,36.3,1,6,3,2,.81048749746294,.797054326362055,METU
1996,3,4,4,4,3,4,3,3,3,2,3,2,2,2,4,2,5.16666666666667,0,3.88888888888889,3.22222222222222,70,4, ,3.27272727272727,1,6,4,4,6,6,6,5,6,6,4,6,5,5,4,7,6,5,2,2,3,5,6,6,5,5,6,4,2,2,3,3,6,4,4,2,4,10:38:02,2.4,2,4,2,4,4,3,4,4,4,4,4,4,4,7,5,6,6,3,1,20,5.33333333333333,3.18181818181818,4,4,4,4,4,2,2,2,2,3,4,4,4,2,4,4,2,3,3,3,2,3,3,5,4,5,2,1,2,3,3,4,4,4,3.30769230769231,2,2,2,1, ,4,4,5, ,4,2,7,7,1, ,2,8,1, , ,1,2,3,2,Köprü Grubu, , , , ,2, , , , ,3,6,6,6,6,5,4,7,3,2,2,4,4,4,2,2,4,5,3,1,2,5,4,5,5,4,3,4,4,3,4,3,2,4,2,2,3,4,3,3,2,4,3,3,4,4,2,2,4,4,3,4,4,2,4,3,2,2,4,4,5,4,3,3,4,2,3.30769230769231,3,3,5,3,2,4,4,3,4,3,3,4,3,3,35.2,36.6,2,35.9,1,3,3,2,1.34818500359501,1.18344360640051,METU
1978,2,2,3,3,2,3,3,4,3,3,2,2,2,3,3,2,4.5, ,3.66666666666667,3.11111111111111,67,2.55555555555556,40,2.72727272727273,1,6,5,6,6,5,6,1,5,5,5,6,6,4,2,2,7,2,2,1,1,5,3,3,2,2,3,2,1,2,2,2,2,6,5,1,3,10:26:32,2.4,2, ,2,5,4,4,3,2,4,4,4,3,5,6,6,6,6,4,4,20,3.5,3,4,3,4,3,4,2,2,2,3,2,4,4,2,4,4,3,5,2,2,2,1,2,3,2,3,3,1,1,3,1,4,2,3,3,2.38461538461538,2,1,1,1, ,2,2,4,1,5,5,4,4,1, ,2,1,3,3,3,1,1, ,1, , , , , , , , , , ,3,4,3,4,4,3,3,8,1,1,1,4,4,4,2,2,5,5,5,1,4,3,5,5,3,4,4,3,3,3,3,3,1,1,2,3,4,5,5,3,4,4,4,4,4,1,4,2,4,4,4,3,3,2,3,3,4,4,4,2,3,4,3,3,1,4,3,3,3,4,3,3,2,3,3,3,2,4,4,4,2,36.8,36.1,2,36.45,1,6,3,2,.702947996236528,-.251716576599474,METU
1993,4,5,3,4,5,4,4,4,4,5,5,3,1,3,1,1,5.44444444444444,0,3.22222222222222,2.33333333333333,62,4.77777777777778,25,4.27272727272727,1,6,6,6,6,6,6,6,6,6,6,6,6,4,2,6,5,5,4,5,5,6,5,6,3,6,5,5,3,3,6,2,5,5,5,6,5,10:24:52,1.8,2,0,2,3,2,3,2,2,4,5,4,4,5,4,5,2,4,2,2,16,5.83333333333333,2.36363636363636,4,4,4,4,2,1,1,1,1,3,1,2,3,1,3,4,2,3,1,2,2,2,1,1,1,3,1,1,1,2,3,1,4,1,1.69230769230769,1,1,2,1, ,4,4,5, ,5,3,7,7,1, ,2,1,1, , ,1,1, ,1, , , , , , , , , , ,7,5,4,5,7,7,7,6,2,2,2,4,4,3,2,4,4,4,3,2,2,2,4,3,4,4,4,3,2,2,4,2,2,4,2,3,5,5,4,3,5,2,5,1,3,2,3,2,4,4,4,4,1,3,3,2,3,2,3,1,4,3,3,4,2,1,3.61538461538462,4,4,5,3,3,2,3,4,4,3,5,5,4,3,36.2,36.2,2,36.2,1,5,3,2,1.61703375666104,1.95622216647743,METU
1994,2,3,2,2,2,2,2,2,4,3,3,2,2,4,4,1,3.72222222222222,0,4.33333333333333,3.66666666666667,56,2.44444444444444, ,2.45454545454545,1,6,2,2,6,7,5,2,6,5,2,6,2,2,2,2,6,2,2,2,2,5,2,2,2,2,2,2,1,1,2,2,2,5,5,3,2,10:17:18,2.6,2,2,2,5,4,4,4,5,5,4,4,4,4,6,6,4,5,5,4,18,4.83333333333333,3.90909090909091,5,5,4,4,5,4,4,2,2,4,4,4,3,4,2,5,4,4,3,4,1,4,4,4,4,4,2,3,4,4,5,3,5,4,3.84615384615385,2,2,2,1, ,4,4,4,1,5,5,4,3,1, ,2,8,1, , ,4,1, ,1, , , , , , , , , , ,4,5,5,6,5,4,4,7,2,2,2,5,3,4,2,4,2,5,5,1,4,5,3,2,5,5,5,5,5,4,5,5,2,2,2,1,5,5,4,5,2,3,4,4,4,4,3,1,4,5,2,4,5,2,5,4,5,5,4,1,4,5,5,2,2,4,3.07692307692308,3,3,4,3,2,3,3,3,3,3,4,4,3,3,35.5,36,2,35.75,1,4,3,2,-.0498285123483643,-.362113513753319,METU
1993,2,3,3,2,2,2,4,2,3,3,2,2,4,2,4,2,5.55555555555556,0,3.11111111111111,3.66666666666667,62,4.11111111111111, ,2.54545454545455,1,6,5,5,6,6,6,6,6,6,6,6,4,4,6,5,7,6,4,4,4,6,4,6,5,6,3,5,3,3,5,3,5,3,3,2,4,10:15:58,2.8,2,2,2,4,2,4,2,2,3,3,4,4,4,4,7,4,4,4,4,9,6.5,4,4,4,4,4,4,4,4,4,4,4,4,4,4,2,4,4,4,4,3,4,2,2,2,3,3,4,1,3,2,1,2,3,3,4,2.53846153846154,2,2,2,1, ,4,4,4,1,1, ,2,2,1, ,2,7,1, , ,1,1, ,1, , , , , , , , , , ,7,6,6,6,7,7,7,6,2,1,1,4,4,3,2,3,4,4,4,2,4,4,4,3,4,4,4,5,2,3,3,1,1,4,2,2,4,4,4,4,3,5,4,2,4,4,4,2,4,4,4,4,4,3,3,3,4,4,4,2,4,4,4,4,1,5,3.84615384615385,4,4,4,4,3,3,4,4,4,4,4,4,4,4,36.3,36,2,36.15,1,5,3,2,1.72457325788745,1.29384054355436,METU
1996,2,3,1,2,3,2,3,3,3,2,2,2,3,3,1,2,5.11111111111111,0,4.55555555555556,2.33333333333333,64,5.11111111111111, ,2.36363636363636,1,6,6,5,6,7,6,5,6,7,3,7,2,2,2,6,5,6,5,4,6,6,7,6,3,7,7,6,2,3,5,5,6,7,6,2,4,10:04:48,2.2,2,6,2,5,4,4,5,4,5,5,5,4,5,6,7,5,4,5,6,12,5.66666666666667,2.54545454545455,4,3,4,4,3,1,1,2,1,2,3,2,4,2,2,2,1,3,1,4,2,3,3,4,4,4,2,2,1,4,2,2,5,3,3,2,2,2,1, ,4,4,5, ,2,1,3,3,1, ,2,8,1, , ,3,1, ,1, , , , , , , , , , ,5,5,6,6,7,5,5,6,2,3,2,4,4,1,2,2,1,4,5,1,1,4,4,5,3,1,2,3,2,2,4,3,2,2,1,1,4,3,3,4,2,4,2,4,4,5,4,2,4,3,4,3,1,3,2,4,1,1,4,2,2,3,1,2,1,1,3.53846153846154,3,3,5,4,4,4,3,3,3,3,4,5,3,4,36.6,36.6,2,36.6,1,2,3,2,1.2944152529818,2.28741297793896,METU
1995,2,2,4,3,2,2,4,2,3,2,2,1,2,2,4,4,3.72222222222222,0,4.55555555555556,3.77777777777778,64,2.83333333333333, ,2.54545454545455,1,6,2,2,5,2,5,6,5,2,6,6,2,1,1,5,5,5,1,3,2,3,3,3,3,3,3,5,2,2,4,2,3,2,3,3,2,9:49:23,2.6,2,2,2,5,5,5,5,5,4,4,4,4,3,3,4,2,2,3,5,36,5.33333333333333,3.81818181818182,5,5,5,5,5,2,1,1,4,4,5,4,4,4,4,4,2,4,4,4,2,4,4,5,4,4,3,4,4,3,3,4,5,4,3.92307692307692,1,2,2,1, ,4,4,5, ,6,5,4,3,2,8,2,8,1, , ,1,1, ,2,Dini Topluluk,Siyasi Topluluk, , , ,7,7, , , ,6,6,6,6,4,4,4,7,3,2,2,5,4,2,5,4,5,5,5,1,1,4,5,5,2,2,4,3,5,2,4,4,2,2,2,1,5,5,3,5,4,5,2,4,5,5,5,1,2,4,1,4,4,2,2,4,4,4,5,2,1,4,3,2,2,4,2.84615384615385,3,3,3,2,3,3,2,2,3,3,4,4,4,2,36.3,36.3,2,36.3,1,2,3,2,-.0498285123483643,.0242757662851389,METU
1988,3,4,4,4,3,3,4,5,4,4,4,4,5,2,5,3,5.44444444444444, ,3.44444444444444,2.77777777777778,62,2.33333333333333,24,3.81818181818182,1,7,5,6,5,7,6,7,5,6,5,7,5,6,6,2,7,2,4,3,2,2,3,5,1,3,3,3,1,1,1,2,3,2,1,1,5,9:48:18,3.8,2,12,2,2,4,4,4,2,3,4,4,4,3,2,5,3,5,5,3,39,5.83333333333333,2.54545454545455,4,3,4,4,2,2,1,2,1,1,4,5,1,2,4,4,4,2,1,2,1,5,3,2,2,2,1,1,3,2,1,2,3,3,2.30769230769231,1,1,2,1, ,3,3,4,1,2,1,4,2,1, ,2,8,3,1,6,1,1, ,2,ÖĞRENCİ,KLÜP,OKUMA,ÖĞRETMEN,EV,6,8,5,3,2,7,6,7,5,5,5,6,9,2,1,4,2,4,4,2,4,5,4,4,1,2,4,4,4,2,5,4,4,3,2,4,4,1,2,2,4,1,3,5,1,2,3,3,2,2,1,4,4,2,2,4,4,4,1,4,1,5,4,5,2,3,4,3,4,2,4,3.46153846153846,4,4,4,4,3,3,3,3,4,4,3,4,3,3,36.2,36.4,2,36.3,1,5,3,2,1.61703375666104,-.472510450907164,METU
1994,2,2,1,2,1,3,3,2,4,2,2,2,1,3,3,4,2.66666666666667,0,2.66666666666667,1.77777777777778,74,3.77777777777778, ,2.18181818181818,1,5,2,2,2,5,5,2,2,2,2,2,2,3,1,2,5,2,2,2,2,6,5,2,4,6,5,3,2,4,2,2,7,5,6,2,3,11:18:18,2.6,2,3,1,3,2,4,2,2,3,3,3,2,5,5,4,2,3,4,4,6,5.66666666666667,2.27272727272727,4,3,3,2,3,1,1,1,2,1,4,2,1,3,2,1,2,2,1,2,2,1,1,5,3,2,1,1,2,3,2,3,3,3,2.30769230769231,2,2,2,1, ,4,2,5, ,1, ,7,2,1, ,2,6,1, , ,1,1, ,1, , , , , , , , , , ,6,7,6,3,6,6,6,5,1,2,1,4,4,1,5,2,1,5,5,1,3,3,4,5,4,1,4,4,2,2,4,2,2,4,3,2,4,4,4,4,3,4,1,4,4,3,4,2,3,4,4,2,1,4,4,3,1,1,3,5,4,2,4,1,3,1,3.53846153846154,4,4,5,3,3,2,3,4,3,3,4,5,4,4,36.4,36.8,2,36.6,1,12,3,2,-1.07145377399929,.962649732092823,METU
1994,2,2,4,3,2,3,3,3,4,3,3,4,2,3,2,2,4.83333333333333,0,4,3.77777777777778,69,3.66666666666667,20,2.90909090909091,1,6,4,5,6,6,6,6,5,6,5,6,5,3,2,3,5,6,2,2,6,5,6,5,2,2,3,3,3,2,7,3,2,4,4,2,5,10:39:17,2.6,2,9,1,4,4,4,4,4,4,4,4,4,3,4,6,4,4,4,3,21,4.66666666666667,3.45454545454545,4,4,4,4,4,2,2,4,4,2,4,4,4,4,4,4,2,4,4,4,1,2,2,4,2,3,1,2,1,2,3,1,4,3,2.30769230769231,1,1,2,1, ,4,4,4,1,4,1,4,4,1, ,2,8,3,1,8,1,1, ,1, , , , , , , , , , ,3,6,5,6,6,2,2,8,2,2,2,4,4,4,3,3,5,4,4,2,3,4,3,2,4,4,4,4,4,4,4,4,3,3,3,3,2,4,4,3,3,4,4,4,5,5,2,2,4,4,2,4,3,2,4,2,4,4,4,2,3,4,2,3,2,2,3.92307692307692,4,4,5,4,3,3,4,4,4,3,4,5,4,5,35.3,36.7,2,36,1,6,3,2,1.02556649991577,.852252794938977,METU
1994,2,2,2,2,2,2,2,2,4,2,2,2,2,2,2,2,3.44444444444444, ,4,3,66,2.55555555555556, ,2.18181818181818,1,6,2,3,5,6,4,2,3,2,3,2,5,5,5,2,2,3,2,4,2,2,2,5,3,3,2,2,2,2,2,2,5,2,2,2,2,10:20:54,2,2,3,1,4,4,4,4,4,4,4,4,4,5,7,6,6,2,5,6,23,5,3.36363636363636,4,4,4,4,4,2,2,2,4,3,4,3,2,4,3,3,2,3,3,4,2,4,4,5,4,3,2,2,3,4,4,2,5,4,3.53846153846154,1,2,2,1, ,4,4,5, ,6,3,6,6,2,5,2,8,1, , ,1,2,3,1, , , , , , , , , , ,6,5,5,5,5,4,5,8,4,1,2,4,4,4,4,3,4,4,2,1,3,4,4,3,4,4,4,4,4,3,4,4,3,3,2,4,2,4,4,4,3,3,3,4,4,4,2,2,4,4,4,4,4,2,4,4,4,4,4,2,3,4,3,3,3,4,2.38461538461538,3,3,3,2,2,2,2,3,2,2,2,3,2,3,35.5,36.5,2,36,1,5,3,2,-.318677265414397,-.251716576599474,METU
1997,2,4,2,2,2,4,4,2,2,2,2,2,2,2,2,1,4.77777777777778, ,3.66666666666667,2.33333333333333,70,1.38888888888889, ,2.54545454545455,1,7,6,5,3,7,7,5,5,7,2,7,2,5,6,4,1,6,1,2,1,1,1,1,2,3,1,2,1,1,1,1,2,1,1,1,2,9:46:03,1.8,1, ,1,4,4,4,4,2,3,4,4,4,5,8,7,6,6,7,8,21,6.33333333333333,2.72727272727273,4,4,4,4,2,2,1,1,2,2,4,2,2,2,2,3,2,4,2,2,1,3,2,4,3,2,1,1,1,1,4,2,2,2,2.15384615384615,2,2,1,1, ,4,4,4,1,7,3,4,2,1, ,2,8,1, , ,6,1, ,2,Japon Kültür Topluluğu, , , , ,4, , , , ,6,7,7,6,6,6,7,7,3,2,2,4,4,4,2,4,4,5,5,1,5,5,4,5,5,5,5,5,4,4,5,4,1,3,1,2,3,5,5,3,4,3,2,3,2,2,1,4,2,2,4,4,5,2,4,2,5,5,5,2,4,5,5,4,2,5,3.61538461538462,4,5,5,3,3,3,3,4,4,2,4,4,4,3,35.1,36.3,2,35.7,1,3,3,2,.97179674930256,-1.41088441671485,METU
1992,1,1,5,1,1,4,4,1,3,4,1,4,1,3,4,5,6.11111111111111, ,1.66666666666667,2.22222222222222,56,4.94444444444444, ,2.36363636363636,1,7,7,7,7,7,7,7,7,6,4,7,4,4,4,7,7,7,4,4,1,4,7,7,7,7,7,7,4,4,4,3,6,6,6,1,4,9:41:05,3.4,2, ,1,1,2,2,3,1,1,1,3,1,5,8,7,5,7,6,6,22,5.66666666666667,3.09090909090909,4,5,4,4,3,1,2,1,4,1,5,1,3,3,1,4,2,1,1,4,2,5,5,5,5,5,1,4,4,4,5,4,5,2,4.15384615384615,2,2,2,1, ,4,4,5, ,6,4,5,5,1, ,2,8,3,1,6,1,1, ,1, , , , , , , , , , ,7,6,5,2,7,7,7,7,3,1,1,3,5,5,1,5,5,5,5,3,2,2,5,5,5,1,1,1,3,1,1,1,3,5,3,1,5,5,5,4,5,5,5,5,5,5,5,1,5,5,5,3,1,1,1,2,1,1,3,2,1,3,3,3,1,5,3.84615384615385,5,4,2,5,2,3,4,4,4,3,5,5,5,4,35.9,36.7,2,36.3,1,4,3,2,2.26227076401952,2.1218175722082,METU
1980,2,2,1,3,2,2,2,2,1,3,2,2,1,3,4,3,2.88888888888889,0,4.88888888888889,3,75,2.66666666666667, ,2,1,3,2,1,2,4,5,2,3,2,1,3,6,3,5,2,3,4,1,4,4,2,2,2,2,1,2,5,4,2,2,3,2,3,2,3,3,9:41:53,2.6,2,0,5,5,5,5,5,5,4,5,5,5,5,6,4,3,5,2,5,30,2.16666666666667,2.72727272727273,4,4,3,3,2,1,1,2,4,3,3,3,3,3,4,2,2,4,2,4,1,4,3,4,3,3,2,3,2,3,3,3,4,2,3,1,2,1,3,3,4,4,4,4,5,5,6,2,1, ,1, ,3,1,6,4,1, ,1, , , , , , , , , , ,3,2,2,2,2,2,3,8,1,2,4,4,4,3,3,4,2,4,4,2,2,3,4,2,1,4,4,5,4,3,3,4,1,2,1,2,3,4,3,4,4,3,1,4,4,4,3,2,2,3,2,4,3,2,4,2,4,4,4,4,4,4,4,3,4,3,2.38461538461538,3,2,3,2,1,1,2,4,2,3,2,4,4,2,34.1,36.2,2,35.15,1,0,4,1,-.590470238318823,-.373114239517878,Oslo
1996,1,3,3,3,2,1,2,1,1,1,1,2,1,1,1,1,3.22222222222222,1,4.44444444444444,2.44444444444444,64,2.83333333333333, ,1.72727272727273,1,4,2,2,3,2,5,1,2,2,4,6,5,1,4,5,3,6,1,1,4,4,4,3,2,3,4,3,3,2,1,4,2,2,4,1,4,9:49:24,1.2,2,0,5,5,5,5,5,5,5,2,4,4,4,2,2,1,1,3,2,42,3.66666666666667,2.72727272727273,4,3,3,4,4,2,1,2,2,3,2,2,2,2,3,3,2,2,2,4,2,2,4,4,3,3,4,5,3,4,4,3,2,2,3.30769230769231,1,2,2,1, ,4,4,5, ,4,4,4,3,1, ,2,8,3,1,8,3,1, ,2,Idrettslag,Kollokvie,Seminar, , ,10,4,14, , ,3,4,3,5,4,3,2,7,2,2,3,1,5,3,3,4,2,2,2,1,2,3,3,2,3,4,5,3,4,3,3,2,3,2,3,5,2,1,1,3,4,2,1,4,4,4,2,2,2,3,3,4,2,1,1,4,4,4,4,1,5,4,3,4,4,1,2.53846153846154,5,4,4,2,2,2,2,3,4,1,1,4,1,2,36,36,2,36,1,-2,4,1,-.241556006584973,-.201343265844386,Oslo
1992,4,3,2,2,4,2,4,4,3,4,5,2,4,2,2,2,4.22222222222222,12,5,4.88888888888889,93,2.88888888888889, ,3.36363636363636,1,6,2,5,7,5,5,2,5,5,1,2,4,5,7,2,5,7,1,2,3,6,5,3,1,5,3,2,3,2,2,3,2,3,3,1,3,10:58:58,2.4,2,0,5,5,5,5,5,5,5,5,5,5,4,6,5,3,2,3,2, ,5,5,5,5,5,5,5,5,5,5,5,5,5,5,5,4,5,5,5,5,5,5,2,5,5,4,5,5,4,5,2,2,4,3,2,4,3.84615384615385,2,2,2,1, ,4,4,5, ,8,5,8,6,2,1,2,4,3,1,8,1,1, ,2,Trening,0,0,0,0,5,0,0,0,0,5,5,5,5,5,5,5,9,2,4,4,4,3,1,5,5,1,4,2,3,5,5,4,2,5,5,5,5,5,5,5,5,3,3,3,3,5,4,2,4,2,2,1,1,5,3,1,2,1,1,5,4,4,5,4,4,4,4,5,5,5,5,5,5,5,1,2.69230769230769,4,4,4,2,2,2,1,4,2,1,4,3,1,4,35.8,36.6,2,36.2,1,1,4,1,.805186688616575,-.144086274619889,Oslo
1996,1,1,1,2,1,1,1,1,4,1,1,2,3,5,5,5,2.05555555555556, ,4.22222222222222,2.33333333333333,58,1.72222222222222, ,1.36363636363636,1,4,1,1,1,7,1,4,2,1,1,3,1,2,1,2,1,3,1,2,1,6,1,1,2,1,1,1,3,3,1,2,1,1,1,1,2,9:29:38,4,2, ,5,5,5,5,5,5,4,2,4,3,2,2,1,1,1,1,1, ,3.16666666666667,2.09090909090909,4,4,3,3,1,1,1,1,1,1,3,1,4,2,3,4,1,2,1,3,1,2,5,4,3,3,1,3,1,5,3,4,4,2,3.07692307692308,1,2,1,1, ,4,4,4,2,8,5,7,7,1, ,2,8,1, , ,1,1, ,2,Klatring,.,.,.,.,3,0,0,0,0,3,6,2,4,2,2,4,8,3,4,2,5,5,1,2,2,1,4,2,1,3,2,4,2,5,4,4,5,3,4,2,1,1,2,2,4,2,3,3,4,1,3,2,2,5,3,4,1,4,3,4,3,2,3,4,2,5,3,3,4,4,2,3,2,4,1,1.92307692307692,2,2,2,1,2,2,2,3,2,2,1,4,3,1,35.6,35.5,2,35.55,1,-2,4,1,-1.46275581765345,-1.34648309033433,Oslo
1985,5,2,1,2,2,1,1,3,2,1,1,3,4,2,3,1,2.44444444444444, ,3.77777777777778,1.77777777777778,92,2.27777777777778, ,1.90909090909091,1,2,2,2,2,4,2,2,3,6,1,2,2,4,2,2,3,1,2,2,2,4,2,2,2,2,2,1,4,6,2,1,1,2,2,2,2,12:43:06,2.6,2, ,5,5,5,5,5,5,3,2,2,2,5,5,6,2,3,1,2,30,2.5,1.90909090909091,3,3,3,2,2,1,1,1,1,1,3,2,2,1,1,2,1,2,2,3,1,5,4,4,5,2,2,5,4,4,4,5,4,5,4.07692307692308,1,2,1,5,5,4,4,4,1,5,5,1,1,2,2,1, ,3,1,8,2,1, ,1, , , , , , , , , , ,3,2,2,2,3,3,4,9,1,4,2,3,4,3,2,1,1,4,2,2,3,3,3,2,4,4,3,3,3,3,3,2,2,2,2,2,1,3,4,2,3,4,1,2,4,4,2,3,2,2,2,2,2,3,3,4,2,3,2,4,2,2,3,2,4,2,1.92307692307692,1,2,3,2,1,1,2,3,2,2,3,4,1,2,36.2,36.3,2,36.25,1,1,4,1,-1.05568921396395,-.77391317808936,Oslo
1996,1,2,1,3,1,1,1,3,1,1,1,2,3,2,5,2,2.22222222222222,2,4.44444444444444,1.55555555555556,69,1.77777777777778, ,1.45454545454545,1,3,1,2,2,7,1,2,5,1,1,1,2,1,1,2,1,6,1,2,2,1,2,2,4,1,1,1,2,1,2,2,2,1,2,2,2,9:41:37,2.8,2,20,5,5,5,5,5,5,4,3,4,4,4,5,4,1,2,2,4, ,4.5,1.81818181818182,4,3,2,3,1,1,1,1,1,1,2,1,1,1,2,1,1,2,1,4,1,5,5,5,5,5,4,4,4,5,4,4,3,4,4.38461538461539,1,2,5,1, ,4,4,5, ,2,2,6,6,1, ,2,6,1, , ,4,1, ,2,Kompiser,Medstudenter,Aktivitetsklubb,0,0,5,3,7,0,0,5,4,4,5,5,4,4,7,3,1,1,3,3,2,2,2,4,4,2,1,5,2,3,4,3,5,4,5,5,4,4,4,1,1,1,2,3,4,4,4,2,2,3,4,4,5,3,1,4,4,2,4,3,2,3,4,3,3,2,2,4,1,1,3,1,2,2.07692307692308,2,2,3,2,2,2,2,3,2,2,2,4,1,2,35.9,36.1,2,36,1,-4,4,1,-1.28829870178652,-1.28922609910984,Oslo
1991,2,1,2,2,2,1,1,2,2,1,1,2,3,3,4,2,2.11111111111111,0,2.44444444444444,1.44444444444444,75,3.88888888888889, ,1.54545454545455,1,1,1,1,2,4,1,1,6,3,1,3,1,2,2,1,1,5,2,3,5,6,5,5,3,2,3,2,7,6,5,6,2,3,3,2,2,9:36:20,2.8,2,0,5,4,2,4,4,2,1,1,2,2,2,2,1,1,1,2,2,44,1.5,1.36363636363636,2,1,2,1,2,1,1,2,1,1,1,1,2,1,2,1,1,1,1,3,1,4,5,3,4,3,4,5,4,4,4,3,3,4,3.84615384615385,1,2,2,1, ,4,2,4,1,2,2,5,5,1, ,2,8,1, , ,6,1, ,2,OSI Boksing,Seminar PSY101,Seminar PSY1101,OSI Dans,Kollokvie,7,5,5,7,3,1,2,1,2,2,1,1,8,4,3,2,4,5,2,2,4,1,2,2,5,4,4,3,2,4,5,4,5,2,3,3,2,2,4,2,4,2,2,4,3,4,2,1,1,2,1,5,4,2,1,1,3,4,2,3,3,2,4,3,2,1,2,2,2,4,1,2.38461538461538,2,2,3,1,2,2,3,3,2,4,2,5,2,3,35.6,36,2,35.8,1,0,4,1,-1.4046034456978,.886539567421065,Oslo
1995,4,3,1,3,3,4,4,1,1,3,1,2,1,2,3,2,1.27777777777778,2,4.22222222222222,3.44444444444444,87,1.33333333333333, ,2.54545454545455,1,1,1,1,1,1,1,1,1,1,1,1,1,1,1,1,4,3,1,1,1,1,1,1,1,1,1,7,1,1,1,1,1,1,1,1,1,9:38:48,2,2,0,5,5,5,5,5,5,3,2,4,4,4,5,6,2,5,3,4,24,4.83333333333333,3.09090909090909,4,4,4,4,2,2,3,3,2,2,4,3,4,3,4,4,2,4,2,5,1,4,4,4,2,3,4,4,2,3,3,3,4,3,3.30769230769231,2,2,1,1, ,4,4,4,1,4,4,8,4,1, ,2,5,3,1,8,1,1, ,1, , , , , , , , , , ,3,5,5,5,6,5,4,8,2,1,2,2,5,5,2,2,4,3,2,1,3,3,3,3,3,4,4,5,4,4,4,3,1,1,1,4,2,3,5,3,4,3,4,5,4,3,4,3,2,3,4,4,5,1,4,3,4,3,5,2,5,5,5,5,5,3,2.61538461538462,2,3,4,2,1,3,2,3,2,2,4,5,2,4,35.9,36.4,4,36.15,1,-3,4,1,-2.27688902503243,-1.74728202890582,Oslo
1985,5,4,3,5,5,3,5,4,1,3,5,1,1,3,1,1,3.72222222222222, ,4.66666666666667,1.66666666666667,83,2.38888888888889, ,3.90909090909091,2,5,3,5,2,6,5,1,3,3,6,2,6,2,6,3,7,1,1,2,1,7,1,1,2,5,2,2,2,2,2,1,3,2,2,1,5,10:37:50,1.4,2, ,5,5,5,5,5,5,5,2,5,5,3,3,6,4,2,5,2, ,7,3.27272727272727,4,4,4,4,2,2,4,2,4,2,4,1,1,1,1,1,1,4,1,4,1,3,5,3,2,3,5,5,3,2,5,3,5,4,3.69230769230769,2,2,1,1, ,4,2,4,1,8,4,8,8,1, ,1, ,3,1,8,1,2,1,2,Fagforening,Verneombud,Ingen,Ingen,Ingen,7,2,0,0,0,7,7,7,7,7,7,7,9,2,1,2,2,4,4,3,2,4,2,2,1,4,4,4,1,5,5,5,3,3,5,4,3,2,2,4,4,2,4,4,4,2,4,4,1,5,2,1,4,1,1,4,2,3,2,4,4,4,4,4,2,3,4,3,4,2,3,2.38461538461538,4,3,3,2,2,2,2,2,2,2,3,3,1,3,36.88,36.89,2,36.885,1,-12,4,1,.281815341015801,-.659399195640365,Oslo
1953,1,1,1,2,2,1,1,2,1,3,1,1,1,1,2,1,2.72222222222222,0,4.66666666666667,2.33333333333333,76,2.94444444444444, ,1.45454545454545,1,5,2,3,2,3,5,1,1,2,2,2,5,2,5,1,5,1,2,7,2,5,2,2,2,2,2,3,2,2,3,2,2,4,4,2,5,9:57:08,1.2,2,0,5,5,5,5,5,2,5,5,5,5,5,8,7,1,3,2,5,12,3.66666666666667,2.72727272727273,4,4,4,4,4,1,1,1,2,1,4,2,2,1,1,4,2,2,3,4,2,3,3,2,3,2,5,1,4,4,2,3,4,3,3,2,2,4,2,2,2,2,5, ,3,1,2,2,1, ,1, ,2,1,1,1,2,1,1, , , , , , , , , , ,5,4,2,5,3,3,2,8,1,2,2,4,4,3,1,3,4,2,2,2,3,2,4,3,4,3,4,4,2,4,3,2,3,2,3,4,2,2,4,2,2,2,2,1,4,1,2,2,1,3,5,1,1,1,2,5,3,3,4,2,5,1,1,1,5,1,1.76923076923077,2,3,3,1,1,1,1,2,1,2,3,3,2,1,35.1,36.1,2,35.6,1,1,4,1,-.764927354185747,-.0868292833953909,Oslo
1991,3,2,4,2,3,4,4,2,2,4,3,1,2,1,2,2,4.27777777777778, ,3.66666666666667,3,70,4.16666666666667, ,3,1,5,5,5,5,3,6,5,5,5,5,2,2,5,2,5,5,6,1,4,2,6,5,4,5,5,5,6,3,3,3,3,3,5,5,5,3,10:46:22,1.6,2, ,4,4,2,4,4,3,4,4,4,4,4,3,2,1,1,3,3, ,3.66666666666667,3,3,3,3,3,2,3,3,4,3,3,3,3,3,3,4,2,1,4,3,4,1,3,3,2,3,4,2,5,2,2,2,4,4,3,3,1,2,2,1, ,4,1,4,1,1, ,5,4,1, ,2,7,3,1,1,5,1, ,2,Sport,Kollektiv,Kollokvie,Ingen,Ingen,3,5,3,0,0,6,3,3,2,4,4,4,8,2,4,4,3,4,3,2,2,4,4,4,2,4,4,4,5,4,4,4,3,2,3,4,3,4,4,3,2,4,4,4,4,2,4,4,3,5,4,3,2,4,4,3,4,3,2,4,4,4,3,4,2,4,4,4,2,3,3,3.53846153846154,4,4,5,3,3,3,2,4,3,3,4,5,3,5,35.4,36.4,2,35.9,1,-7,4,1,.863339060572216,1.17282452354355,Oslo
1994,2,2,1,2,2,2,2,3,4,2,2,1,4,2,3,2,5.22222222222222,1,3,3.66666666666667,70,5.11111111111111, ,2.18181818181818,1,7,7,7,7,6,6,2,5,6,4,6,5,6,3,3,6,6,2,5,5,6,6,6,5,5,5,6,6,2,5,6,5,4,5,5,5,9:35:30,2.4,2,1,4,3,4,4,2,2,2,1,4,5,5,7,6,3,6,6,6,19,5.5,3.54545454545455,4,4,4,5,4,2,4,3,1,4,4,4,4,2,4,3,2,5,4,5,2,2,3,5,3,2,2,3,1,2,3,2,2,3,2.53846153846154,1,2,2,1, ,4,4,5, ,4,1,8,7,1, ,2,8,2,1,4,1,1, ,1, , , , , , , , , , ,3,6,7,6,6,5,5,7,3,3,3,4,4,1,4,4,2,5,5,1,2,2,3,5,5,5,5,5,3,5,5,3,2,4,1,2,4,5,3,4,1,5,5,2,4,2,1,4,4,2,4,2,2,4,4,4,4,3,4,3,3,4,2,5,5,3,3.15384615384615,4,2,4,3,3,4,2,4,3,3,2,4,3,4,35.6,35.8,2,35.7,1,-5,4,1,1.85192938381812,2.14619337436001,Oslo
1991,3,2,1,2,2,2,3,2,1,1,3,3,1,2,2,3,2.94444444444444,4,3.88888888888889,2.33333333333333,70,2.11111111111111, ,2,1,2,2,5,2,5,4,1,3,5,2,5,2,2,2,5,2,2,2,2,2,3,2,2,2,2,2,2,2,1,3,3,2,2,3,1,2,9:56:35,2.2,2,0,4,4,4,4,4,3,4,4,4,4,5,5,5,2,3,2,3, ,5,3.09090909090909,4,4,3,4,3,2,3,2,4,3,2,2,3,2,3,1,2,2,2,4,1,4,4,4,4,3,4,3,3,4,4,4,4,3,3.69230769230769,2,2,4,1, ,4,4,3,1,5,2,4,4,1, ,2,8,1, , ,1,1, ,2,Kollokvie,0,0,0,0,4,0,0,0,0,4,5,6,6,4,5,4,8,2,1,2,2,4,4,2,2,5,4,2,1,2,2,4,3,4,4,3,4,3,4,4,4,2,2,2,4,1,4,4,2,3,2,4,4,3,2,3,2,2,4,2,3,2,1,3,3,4,3,4,2,4,4,4,3,4,4,2.46153846153846,2,3,3,2,4,2,2,4,2,2,2,4,2,2,36.4,36.5,2,36.45,1,-2,4,1,-.532317866363181,-.945684151762852,Oslo
1995,2,2,1,2,2,1,2,3,3,1,2,2,3,1,3,2,3.94444444444444, ,4.88888888888889,3.33333333333333,87,4, ,1.90909090909091,1,4,4,4,4,4,3,4,5,4,4,5,4,4,4,3,4,3,4,4,4,5,4,4,3,5,4,4,4,4,4,4,5,4,4,2,4,9:55:58,2.2,2, ,4,5,5,5,5,5,5,4,5,5,5,7,7,2,5,6,5,41,4.16666666666667,3.90909090909091,4,4,4,4,4,4,4,4,4,3,4,4,3,3,4,3,2,4,2,5,2,3,4,3,2,2,2,2,3,4,3,4,2,2,2.76923076923077,2,2,2,1, ,4,4,5, ,8,4,8,8,2,1,2,8,1, , ,5,1, ,2,idrettsgruppe,kollokvie,faddergruppe,-,-,7,4,7, , ,4,4,4,4,5,4,4,7,4,2,4,3,3,4,4,4,5,5,5,1,3,4,2,3,4,4,4,3,4,5,3,4,3,3,3,2,3,5,5,4,3,4,4,4,4,4,3,2,3,3,4,4,4,2,4,3,4,5,4,2,4,4,4,4,2,4,2.92307692307692,3,2,5,3,3,2,3,5,2,3,2,5,3,2,36.1,36.5,2,36.3,1,-3,4,1,.514424828838367,1.00105354987006,Oslo
1995,2,4,1,3,1,2,2,2,4,2,1,4,2,2,3,2,3.72222222222222,26,3.88888888888889,2.33333333333333,81,3.77777777777778, ,2.18181818181818,1,4,4,4,6,4,4,4,5,4,4,5,4,2,1,2,4,2,4,4,4,5,2,3,5,3,4,4,4,4,4,4,2,4,4,4,4,9:46:57,2.6,2,0,4,5,5,4,5,4,2,2,4,4,3,2,1,1,1,2,1,22,3.66666666666667,2.36363636363636,4,4,2,2,2,2,2,2,2,2,2,3,3,1,2,3,2,2,1,4,2,4,5,5,4,4,3,4,4,4,4,4,2,4,3.92307692307692,2,2,2,1, ,4,2,5, ,4,2,8,8,2,8,2,6,1, , ,1,1, ,1, , , , , , , , , , ,5,3,3,3,4,4,4,7,4,4,2,4,4,2,2,2,2,2,2,2,2,2,2,1,4,2,3,3,4,4,3,4,3,1,3,4,3,1,1,4,1,3,2,4,2,2,4,2,2,2,4,2,2,2,4,4,2,3,3,2,2,2,2,2,3,1,1.84615384615385,1,2,3,2,2,2,2,2,1,2,1,4,2,2,35.1,35.4,2,35.25,1,-4,4,1,.281815341015801,.77202558497207,Oslo
1996,2,3,4,1,2,3,1,2,3,4,2,2,5,3,4,3,3.55555555555556, ,4.44444444444444,2.88888888888889,84,1.55555555555556, ,2.45454545454545,1,2,1,1,6,5,3,7,2,7,3,2,6,1,1,1,7,6,3,1,1,5,1,1,1,1,1,1,2,1,2,2,3,1,2,1,1,16:11:09,3.4,2, ,4,4,5,3,4,5,5,4,5,5,5,5,6,2,2,3,2,10,4.83333333333333,3,5,3,2,3,2,2,4,4,1,4,3,3,4,4,2,4,2,2,3,2,1,1,3,3,5,2,3,4,5,4,4,4,5,3,3.53846153846154,2,2,1,1, ,4,4,4,1,1, ,2,1,1, ,2,4,3,1,1,1,1, ,1, , , , , , , , , , ,4,3,7,6,5,4,6,7,1,1,5,1,5,4,3,2,4,3,1,1,2,2,3,1,4,5,4,5,5,5,5,5,1,2,1,3,1,4,5,2,5,1,2,2,4,3,2,1,3,4,4,4,5,4,4,3,4,2,4,2,3,4,2,4,2,5,3.53846153846154,4,3,4,4,3,4,4,4,2,3,4,5,4,3,36.6,36.7,2,36.65,1,-3,4,1,.107358225148876,-1.51825406400783,Oslo
1995,3,3,3,3,3,3,3,3,3,3,3,3,3,3,3,3,4,0,4,3,90,4, ,3,2,4,4,4,4,4,4,4,4,4,4,4,4,4,4,4,4,4,4,4,4,4,4,4,4,4,4,4,4,4,4,4,4,4,4,4,4,14:42:52,3,2,0,4,4,4,4,4,4,4,4,4,4,4,6,5,4,4,4,4,19,4.16666666666667,3,3,3,3,3,3,3,3,3,3,3,3,3,3,3,3,3,3,3,3,3,1,3,3,3,3,3,3,3,3,3,3,3,3,3,3,2,2,2,1, ,2,2,5, ,3,3,5,5,1, ,2,4,3,1,5,2,1, ,1, , , , , , , , , , ,5,4,4,4,4,4,4,7,2,3,3,3,3,3,3,3,3,3,3,3,3,3,3,3,3,4,4,3,4,3,3,3,3,3,3,3,3,3,3,3,3,3,3,3,3,3,4,4,4,4,4,2,4,2,4,3,4,4,4,4,4,4,4,3,3,3,3,3,3,3,3,3,3,3,3,3,3,3,3,3,3,36.7777777777778,36.7222222222222,2,36.75,1,0,4,1,.572577200794009,1.00105354987006,Oslo
1995,4,2,2,2,4,2,4,2,3,4,4,3,3,2,3,2,4.94444444444444,0,4.22222222222222,2.88888888888889,87,3.94444444444444, ,3,2,6,6,4,5,6,5,6,5,5,6,2,2,5,4,6,5,6,5,4,2,5,3,5,5,5,5,5,3,3,3,3,5,5,3,3,4,14:34:55,2.6,2,0,4,5,4,4,4,4,4,3,5,5,5,6,6,3,4,4,4,19,5.66666666666667,3.63636363636364,4,4,4,4,4,2,3,3,4,4,4,2,2,2,3,4,2,4,3,4,1,2,4,4,4,4,1,3,2,2,2,3,3,3,2.84615384615385,2,2,2,1, ,2,2,5, ,3,3,5,5,1, ,2,1,3,1,4,3,1, ,1, , , , , , , , , , ,6,6,5,6,6,5,5,7,2,2,3,3,4,3,3,3,3,4,3,3,3,3,3,3,3,4,4,3,3,3,4,5,3,2,4,3,3,3,5,3,4,4,2,2,2,2,3,2,3,2,4,3,4,2,4,4,4,4,4,4,5,4,4,4,2,4,3.30769230769231,4,3,4,3,3,3,3,4,3,3,3,4,3,4,36.7777777777778,36.7222222222222,2,36.75,1,1,4,1,1.56116752403992,.943796558645563,Oslo
1995,4,2,2,3,3,4,3,3,2,3,4,4,2,4,3,3,2.55555555555556, ,4.44444444444444,3,95,3, ,3,1,2,2,1,2,6,3,2,4,2,2,3,4,2,2,2,3,2,2,2,2,6,4,3,6,2,2,1,3,2,3,2,4,2,4,4,2,11:00:24,3.2,2, ,4,5,5,5,5,4,4,4,4,4,4,4,5,2,1,2,2,17,5.16666666666667,3.36363636363636,3,4,4,4,4,3,3,4,2,3,3,3,3,3,3,3,2,3,3,4,1,4,4,4,4,4,4,5,4,4,4,4,4,3,4,2,2,2,1, ,4,4,4,2,4,4,5,5,1, ,2,6,1, , ,1,1, ,1, , , , , , , , , , ,7,5,5,5,5,4,4,7,3,2,3,2,4,3,4,2,4,3,2,2,3,3,4,2,4,4,4,4,4,4,4,4,2,2,2,3,2,3,3,2,3,2,2,3,3,4,3,3,4,3,3,3,3,3,4,4,4,4,4,3,3,4,4,3,3,3,2.69230769230769,2,3,3,2,3,3,2,4,3,2,3,5,2,3,36.7,36.6,2,36.65,1,1,4,1,-.939384470052672,-.0295722921708937,Oslo
1995,1,2,4,2,1,1,1,1,1,1,1,2,3,1,2,3,3.83333333333333,1.5,4.22222222222222,2.22222222222222,58,3.55555555555556, ,1.45454545454545,1,4,4,4,5,4,4,4,3,4,4,5,4,4,2,4,4,2,4,4,4,6,2,2,1,2,4,4,4,4,4,4,3,4,4,4,4,10:37:51,2.2,2,2,4,4,4,4,5,5,4,3,4,5,3,4,1,1,1,2,2, ,2.66666666666667,2.27272727272727,3,4,2,2,2,1,2,1,3,2,3,2,3,1,2,1,1,3,3,4,2,4,4,4,4,1,4,2,3,4,3,5,2,3,3.30769230769231,2,2,2,1, ,4,4,5, ,8,2,8,6,2,2,2,8,3,1,1,1,1, ,2,Fotballag,Studentfotball, , , ,7,7,0,0,0,3,3,3,3,2,2,2,9,3,2,2,2,5,5,1,3,3,2,2,2,2,4,4,1,5,4,4,3,3,5,3,4,3,1,3,5,2,3,4,2,4,4,2,1,5,1,5,3,2,1,4,2,3,1,4,4,4,5,5,1,4,3,4,3,2,3,1.76923076923077,1,1,2,2,3,1,2,2,2,2,1,2,3,1,35.1,36.2,2,35.65,1,-2,4,1,.398120084927084,.54299762007408,Oslo
1988,2,4,1,4,2,2,4,4,4,2,3,4,3,2,3,3,2.66666666666667, ,4.44444444444444,2.11111111111111,94,3.38888888888889, ,2.90909090909091,1,4,3,2,1,5,3,3,3,5,1,3,2,1,3,1,4,2,2,2,4,3,4,4,3,1,4,6,5,3,4,3,1,4,4,2,4,10:21:14,3,2, ,4,5,5,5,5,5,4,3,4,4,4,6,6,1,4,2,2,21,4.83333333333333,2.36363636363636,4,3,3,2,4,2,3,1,1,1,2,1,1,1,4,2,2,3,2,3,1,3,4,4,3,4,2,3,2,4,5,4,4,2,3.38461538461538,2,2,1,1, ,4,4,4,2,5,2,8,8,1, ,2,4,3,1,2,1,1, ,1, , , , , , , , , , ,4,7,5,4,4,5,4,8,2,1,4,2,3,5,2,2,4,4,2,1,2,2,3,4,5,4,4,4,3,3,4,3,1,1,2,3,2,3,4,2,4,3,3,4,4,4,2,2,2,4,4,4,3,2,4,4,5,5,3,2,4,4,3,3,4,4,2.15384615384615,2,2,4,2,1,2,3,2,2,2,2,5,2,2,36.2,36.4,2,36.3,1,-10,4,1,-.823079726141389,.371226646400588,Oslo
1996,3,3,3,4,2,2,2,3,2,2,1,2,2,3,4,2,2.94444444444444,0,3.11111111111111,1.88888888888889,69,2.22222222222222, ,2.45454545454545,1,5,2,2,5,6,2,1,4,3,2,2,3,3,1,2,3,3,4,2,2,3,2,1,1,2,2,2,2,4,2,3,1,4,4,1,2,11:00:12,2.6,2,29,4,3,3,3,5,5,3,2,2,2,3,4,4,1,1,4,3, ,4.66666666666667,2.72727272727273,4,3,4,4,3,1,1,2,1,3,4,3,1,1,2,2,1,2,1,4,2,3,2,4,4,3,1,4,1,3,3,4,4,3,3,2,2,2,1, ,4,2,5, ,2,1,8,6,1, ,1, ,1, , ,2,1, ,2,Cosplay Gruppe,Insomnia, , , ,7,0,0,0,0,6,6,5,4,4,3,4,6,1,4,4,2,4,1,5,3,2,4,4,1,3,4,1,1,3,5,4,4,2,4,4,2,2,3,2,2,2,3,4,2,4,3,1,1,4,1,3,1,3,3,4,5,4,5,3,3,4,4,5,2,3,4,5,3,2,2,2.30769230769231,3,2,2,2,3,1,3,3,2,2,1,4,3,3,36.5,36.5,2,36.5,1,-4,4,1,-.532317866363181,-.831170169313857,Oslo
1996,1,4,1,5,3,1,3,5,4,2,2,2,3,2,5,3,3.22222222222222,24,4.77777777777778,2.77777777777778,70,4.05555555555556, ,2.81818181818182,1,5,2,4,3,7,3,2,4,4,1,2,2,2,2,6,2,5,2,5,5,6,5,6,2,6,6,3,2,2,3,3,7,3,3,5,1,9:44:31,3,2,14,4,5,5,4,5,5,5,4,5,5,5,6,4,1,3,5,3,25,5.16666666666667,2.63636363636364,5,3,4,3,2,1,2,1,2,2,4,2,2,1,4,3,2,4,2,5,1,4,2,4,2,2,2,3,2,4,2,4,2,2,2.69230769230769,2,2,2,1, ,4,2,4,1,8,4,8,7,1, ,2,5,3,8,1,1,1, ,1, , , , , , , , , , ,5,6,6,5,5,4,4,8,3,2,4,4,4,2,2,2,2,4,4,1,3,2,1,1,5,5,5,5,3,5,2,2,2,2,4,2,4,4,4,5,2,3,2,1,4,1,2,4,2,1,4,1,2,2,3,4,5,5,2,5,1,4,1,3,1,4,2.07692307692308,2,2,3,2,2,1,2,3,2,1,3,4,2,2,35.9,35.5,2,35.7,1,-2,4,1,-.241556006584973,1.05831054109456,Oslo
1993,2,3,1,2,2,2,2,2,1,4,1,2,3,1,1,1,4.5,0,3.88888888888889,1.77777777777778,70,4.05555555555556,3,2,2,4,4,4,4,4,6,4,7,4,4,4,4,4,3,6,4,7,4,4,4,6,4,3,4,2,4,4,4,4,4,4,6,4,4,4,4,10:51:28,1.6,2,1,4,5,4,4,5,5,3,2,4,3,3,5,4,1,1,2,3, ,5.5,2,2,3,2,4,2,1,1,2,2,1,2,3,2,1,1,1,1,1,2,4,2,3,4,4,2,5,4,4,5,4,4,3,2,3,3.61538461538462,1,1,2,1, ,4,4,5, ,1, ,3,2,1, ,1, ,1, , ,1,1, ,2,filmcrew,0,0,0,0,3,0,0,0,0,6,6,6,6,6,3,4,5,1,2,4,3,5,4,2,3,4,2,2,1,2,4,2,1,4,4,2,3,4,3,3,4,3,3,3,4,3,4,4,2,4,4,4,1,4,2,1,1,1,1,5,2,1,1,4,4,1,5,5,2,3,4,3,4,3,4,2.53846153846154,3,2,4,2,2,1,3,5,1,3,2,5,2,3,36.5,36.3,2,36.4,1,-7,4,1,1.09594854839478,1.05831054109456,Oslo
1995,1,2,1,3,1,1,1,3,5,1,3,3,1,2,4,3,2.72222222222222, ,4.22222222222222,3,70,2.55555555555556, ,2,1,2,2,5,2,7,3,2,2,2,1,2,1,1,2,7,2,5,1,2,2,4,2,2,2,2,2,6,2,3,3,2,2,2,5,1,2,9:46:09,2.6,2, ,4,5,4,4,5,5,5,3,4,3,4,4,3,1,2,1,1,19,5.5,3.45454545454545,5,5,4,5,4,2,4,3,2,2,2,4,4,2,3,2,2,2,3,5,1,3,3,5,1,4,1,3,1,3,2,3,4,2,2.69230769230769,2,2,1,1, ,2,2,4,2,3,2,6,6,1, ,2,8,3,1,4,1,1, ,1, , , , , , , , , , ,5,6,7,6,5,4,5,8,3,2,4,4,4,2,2,2,4,4,5,1,4,4,4,2,2,4,3,3,3,3,3,3,2,2,3,3,4,5,5,3,4,4,2,1,4,3,2,2,3,4,5,4,4,1,5,5,5,5,2,4,4,3,1,4,2,2,3.23076923076923,4,4,4,3,4,2,3,5,1,3,2,5,3,4,36,36,2,36,1,-2,4,1,-.764927354185747,-.487628221966873,Oslo
1993,4,2,3,3,2,2,2,3,2,3,1,2,2,1,3,1,3.5,3,3.66666666666667,2.77777777777778,70,3.16666666666667, ,2.45454545454545,1,5,2,3,5,7,6,2,5,4,2,3,3,1,2,3,5,3,2,5,2,6,2,3,2,3,3,2,2,2,5,4,3,2,4,2,5,10:53:05,1.8,2,0,4,4,4,4,5,5,3,3,4,1,3,4,2,1,2,3,3,65,3.16666666666667,2.90909090909091,3,4,4,4,3,1,3,3,2,2,3,2,3,2,2,4,2,3,4,3,2,4,5,5,3,3,3,4,3,2,4,5,4,3,3.69230769230769,2,2,2,1, ,4,2,5, ,8,2,6,4,1, ,2,8,3,8,8,2,2,8,2,Skole,Frivillighetsjobb,Familie,Annen jobb,Andre venner,7,7,2,7,7,3,3,5,3,2,3,3,9,3,1,1,2,5,4,4,2,3,2,4,1,3,2,1,3,5,5,4,3,3,5,3,3,1,1,2,4,1,4,4,2,4,1,2,1,4,2,2,1,3,2,3,2,2,2,5,3,4,4,4,3,3,3,2,2,4,3,2.92307692307692,3,3,4,3,2,3,3,5,2,3,2,5,3,2,35.6,36.7,2,36.15,1,-2,4,1,.0492058531932345,.142198681502598,Oslo
1990,2,2,1,3,2,1,3,3,3,1,1,2,2,1,2,1,2.61111111111111,0,3.77777777777778,2.66666666666667,69,1.94444444444444, ,2,1,4,3,2,3,4,3,2,4,3,2,2,2,1,4,2,1,4,1,2,1,3,1,1,1,1,2,1,3,2,3,2,1,4,4,1,2,11:14:18,1.6,2,1,4,4,3,5,5,5,3,2,4,3,4,6,3,2,2,3,4, ,4,2.18181818181818,5,2,3,4,2,1,1,1,1,1,3,3,4,1,4,1,1,2,4,4,2,3,4,4,4,4,3,4,4,3,4,4,3,5,3.76923076923077,2,2,2,1, ,4,4,5, ,3,2,7,6,1, ,2,8,3,1,8,1,1, ,2,Kor,Trening, , , ,7,2,0,0,0,6,3,3,3,6,3,5,8,3,3,5,3,4,2,4,4,1,5,3,1,5,4,4,1,5,5,5,5,5,5,4,4,1,1,3,1,3,2,2,4,2,3,3,2,4,2,3,1,2,2,4,2,3,3,5,4,4,4,4,1,3,4,3,3,3,3,2,2,2,3,1,1,1,3,3,2,2,1,4,2,3,35.6,36.4,2,36,1,-4,4,1,-.88123209809703,-1.11745512543634,Oslo
1984,1,1,1,1,1,1,1,1,1,1,2,1,1,2,1,2,3.33333333333333,0,2.88888888888889,3,76,3, ,1.09090909090909,1,2,5,3,3,7,5,1,2,2,5,2,7,2,5,1,4,2,2,6,2,3,1,2,2,2,2,1,2,3,5,6,2,3,5,1,6,10:45:55,1.4,2,0,4,3,3,4,2,2,3,4,3,2,4,6,6,1,4,3,5,9,2.66666666666667,2.72727272727273,2,4,2,4,2,2,2,2,2,4,4,3,3,1,4,1,4,5,1,5,1,2,3,3,5,3,3,3,2,4,4,4,3,3,3.23076923076923,2,2,1,2,1,4,1,3,1,3,2,5,2,1, ,2,2,1, , ,1,1, ,1, , , , , , , , , , ,4,3,2,2,3,2,2,8,1,3,3,3,5,2,1,2,3,4,4,3,4,4,3,2,4,5,3,3,4,4,4,4,2,2,2,2,2,4,4,2,2,2,1,1,1,1,2,4,2,1,4,2,1,2,4,4,4,4,3,1,2,4,3,2,3,3,2.61538461538462,4,3,2,2,2,2,3,4,3,2,3,4,2,2,35.9,35.9,2,35.9,1,-6,4,1,-.12525126267369,-.0295722921708937,Oslo
1992,2,2,1,2,1,2,2,2,3,2,2,2,2,1,2,1,2.77777777777778,3,3.11111111111111,2.11111111111111,74,2, ,1.90909090909091,1,2,3,3,3,4,3,2,3,2,2,2,2,2,2,2,5,7,1,2,2,3,2,2,2,2,2,1,2,2,2,2,1,2,3,1,3,10:33:36,1.6,2,5,4,3,4,4,4,2,2,2,3,4,4,4,6,2,2,3,2,27,5.33333333333333,2.45454545454545,4,2,3,4,4,1,2,1,2,2,2,2,4,1,1,1,2,2,4,2,1,2,4,5,4,3,2,3,2,4,4,4,4,2,3.30769230769231,2,2,1,1, ,4,4,4,2,7,4,8,8,1, ,2,8,3,1,6,1,1, ,1, , , , , , , , , , ,5,5,5,6,6,5,4,8,3,2,2,4,4,3,4,2,2,3,2,1,4,3,3,2,4,4,4,5,4,5,5,4,1,3,1,4,2,4,4,2,3,3,2,2,2,2,3,2,2,2,4,3,2,2,4,3,4,2,4,2,2,4,3,2,2,1,2.69230769230769,3,2,3,3,2,3,3,4,3,2,2,4,3,2,36.9,37.2,2,37.05,1,-14,4,1,-.706774982230106,-1.06019813421185,Oslo
1993,3,3,1,2,3,2,3,3,2,4,1,2,1,2,3,1,4.22222222222222, ,4.44444444444444,3.11111111111111,69,4.22222222222222, ,2.45454545454545,1,4,4,4,4,4,4,4,5,4,4,5,4,4,4,4,4,6,4,4,4,6,4,4,4,4,4,4,4,4,4,4,5,4,4,5,4,9:41:05,1.8,2, ,4,5,5,5,5,5,2,3,5,5,3,4,5,1,2,2,2,23,5.66666666666667,3,4,4,3,4,3,3,2,2,3,2,3,4,4,3,4,2,2,2,3,4,2,3,3,4,2,1,1,3,2,2,2,5,3,3,2.61538461538462,2,2,2,1, ,4,4,5, ,3,2,8,6,2,1,2,3,3,1,6,2,1, ,1, , , , , , , , , , ,5,6,6,6,6,5,5,8,2,1,5,3,4,4,1,2,3,2,4,4,2,2,4,4,5,4,5,3,4,4,3,4,3,3,3,3,3,4,4,2,2,4,4,2,4,2,3,3,2,3,4,3,3,2,4,4,4,4,4,1,3,4,4,4,2,4,3.15384615384615,4,2,4,2,4,2,3,4,2,3,2,5,4,5,36,35.9,2,35.95,1,-4,4,1,.805186688616575,1.23008151476805,Oslo
1996,2,3,2,1,2,2,2,2,1,2,2,1,2,1,1,1,4.44444444444444,0,3.88888888888889,2.33333333333333,87,2.16666666666667, ,1.90909090909091,1,6,4,2,7,6,5,4,5,5,2,5,5,4,6,3,5,5,1,6,1,5,2,1,1,3,2,2,1,1,2,1,3,2,2,1,3,9:44:22,1.2,2,0,4,4,5,4,5,4,3,3,4,3,5,8,7,7,5,6,5,42,4.83333333333333,3,4,4,4,4,4,2,2,2,2,1,4,2,2,3,2,2,2,2,3,3,2,3,4,3,2,4,3,4,2,4,4,4,5,3,3.46153846153846,2,2,2,1, ,2,2,5, ,6,2,8,7,1, ,2,8,1, , ,6,2,1,2,Kollektivet,Seminar,Seminar,Seminar,Dans,5,6,4,3,5,5,4,5,5,5,5,5,8,4,1,2,2,4,5,3,2,5,2,3,1,4,4,4,4,5,5,5,5,3,5,4,4,1,1,1,3,3,3,4,2,4,4,4,5,5,5,3,2,3,2,5,3,4,1,4,3,5,5,5,1,4,5,4,5,1,4,1.92307692307692,2,3,2,2,1,1,2,2,3,1,3,5,1,2,36,36.3,2,36.15,1,1,4,1,1.03779617643914,-.888427160538355,Oslo
1996,2,3,1,2,2,2,2,3,2,2,2,3,3,2,2,2,1.94444444444444,3,4.77777777777778,2.66666666666667,96,1.5, ,2.09090909090909,1,2,2,1,1,2,2,1,2,2,2,2,1,2,1,2,3,6,1,1,1,2,2,2,3,2,1,1,1,1,1,2,1,1,2,1,2,9:59:00,2.4,2,1,4,5,5,5,5,5,5,4,5,4,5,6,5,1,5,4,3,30,3.5,3.36363636363636,5,4,5,4,4,1,2,2,2,3,5,2,2,2,3,3,1,4,3,4,1,5,4,5,5,3,5,3,4,4,4,5,5,2,4.15384615384615,2,2,1,1, ,4,4,4,4,7,3,8,8,1, ,2,8,3,1,4,5,1, ,1, , , , , , , , , , ,3,3,4,5,4,2,2,8,4,2,4,2,4,5,2,3,4,3,2,2,3,2,4,2,4,5,4,4,4,4,3,3,2,2,2,2,2,3,4,2,3,2,4,4,4,4,1,2,3,4,3,3,2,1,4,4,4,4,4,2,3,3,4,3,2,4,2.53846153846154,2,3,4,2,3,2,1,4,2,2,3,5,2,3,36.4,37.3,4,36.85,1,0,4,1,-1.57906056156473,-1.57551105523232,Oslo
1994,1,2,1,2,1,1,2,2,4,1,1,1,1,1,2,1,2.72222222222222,0,3.55555555555556,2.44444444444444,48,2.27777777777778, ,1.63636363636364,1,2,1,1,2,7,2,1,2,2,1,5,1,1,2,6,6,6,1,5,1,6,1,3,1,3,3,1,3,5,1,1,2,2,1,1,1,15:29:57,1.2,2,0,4,4,4,4,5,5,4,2,2,2,3,3,3,1,1,2,1,18,1.83333333333333,2,1,1,2,1,2,1,4,4,1,4,1,3,2,1,3,1,1,4,2,5,1,4,3,3,4,3,2,2,3,2,2,2,5,3,2.92307692307692,1,2,1,1, ,4,2,4,1,2,1,3,3,1, ,2,8,3,1,8,1,1, ,1, , , , , , , , , , ,1,2,2,2,2,2,2,8,2,2,5,4,2,1,4,2,2,5,5,1,1,1,2,2,3,5,2,5,3,4,3,3,1,1,1,1,4,5,3,3,3,2,2,2,5,4,4,5,3,2,4,5,2,4,3,5,4,5,4,5,2,2,3,2,2,2,1.30769230769231,2,1,2,1,1,1,1,1,1,2,1,4,2,1,36.37,36.37,2,36.37,1,-4,4,1,-.764927354185747,-.77391317808936,Oslo
1995,2,2,1,2,2,2,2,2,1,3,1,2,1,2,3,2,2,0,4.22222222222222,2.66666666666667,70,1.72222222222222, ,1.81818181818182,1,6,1,1,2,7,1,1,2,1,1,1,2,1,2,2,2,2,1,2,2,2,1,1,1,1,1,1,2,2,2,2,1,4,4,1,1,10:46:38,2,2,1,4,5,5,5,5,5,3,1,5,4,4,5,7,2,4,2,3,23,3.83333333333333,2.36363636363636,4,4,4,4,2,1,1,1,1,2,2,2,3,1,3,2,2,2,4,5,1,4,5,5,4,5,4,4,4,5,5,4,5,4,4.46153846153846,2,2,2,1, ,4,4,4,1,8,5,8,8,1, ,2,6,3,1,2,1,1, ,1, , , , , , , , , , ,4,4,4,2,5,4,4,8,3,2,2,3,5,3,2,2,4,3,2,2,3,4,2,1,4,5,5,4,4,5,4,4,1,1,1,5,2,2,2,2,3,2,1,3,4,3,1,2,2,2,4,4,3,3,5,5,3,4,4,1,5,5,3,4,1,1,2.07692307692308,3,2,2,2,2,2,2,2,2,2,4,4,1,1,35.5,36.2,2,35.85,1,-7,4,1,-1.52090818960909,-1.34648309033433,Oslo
1995,3,2,3,3,2,4,2,2,2,2,2,3,4,2,2,2,2.94444444444444, ,3.44444444444444,2.88888888888889,70,2.33333333333333,1,2.45454545454545,1,5,2,2,3,5,5,1,5,3,2,2,2,2,1,5,1,6,1,3,2,6,3,2,3,2,2,2,2,1,3,2,3,1,1,2,2,10:44:27,2.6,2, ,4,2,4,4,4,3,4,2,4,4,4,5,3,3,2,1,1,15,5.16666666666667,3,4,4,4,4,3,1,2,2,3,2,4,3,4,3,4,2,2,2,2,4,1,3,4,2,3,4,3,3,5,2,4,4,4,4,3.46153846153846,2,1,2,1, ,4,3,5, ,6,4,6,5,2,1,2,5,1, , ,1,1, ,1, , , , , , , , , , ,6,5,6,5,5,4,5,7,3,1,4,2,5,3,3,2,3,4,4,4,3,3,4,4,3,3,3,4,2,3,3,3,2,2,2,4,3,4,4,2,4,4,4,4,4,2,2,2,4,3,4,4,2,2,4,4,4,3,4,2,5,4,4,4,2,2,3,4,3,4,3,3,4,3,3,2,3,2,5,2,3,36.2,36.1,2,36.15,1,-2,4,1,-.532317866363181,-.716656186864863,Oslo
1993,2,2,1,3,2,3,2,2,2,2,2,2,2,2,3,3,3.72222222222222,1,4.33333333333333,3.22222222222222,70,2, ,2.09090909090909,1,5,3,3,5,4,6,4,4,3,2,2,5,4,4,2,6,3,2,2,2,4,2,2,2,2,3,2,1,1,2,1,2,1,2,3,2,9:57:42,2.4,2,1,4,5,4,4,5,5,4,2,5,5,5,6,6,2,4,4,5,19,4.5,2.90909090909091,4,3,2,3,3,2,4,2,4,3,2,3,4,2,4,3,2,3,4,4,1,3,5,4,2,2,2,3,3,2,4,4,5,2,3.15384615384615,2,2,1,1, ,4,4,4,2,4,3,7,5,1, ,2,8,3,1,2,1,1, ,1, , , , , , , , , , ,4,5,5,5,4,4,4,8,3,2,2,2,4,4,3,2,4,2,3,1,4,2,3,2,4,4,2,4,3,4,4,4,2,2,3,4,2,4,4,2,3,3,2,2,4,2,3,2,2,3,4,2,2,2,3,4,4,3,4,2,4,4,4,4,4,4,2.61538461538462,2,3,4,2,2,2,2,4,3,2,3,5,2,3,35.9,36.4,2,36.15,1,-2,4,1,.281815341015801,-1.06019813421185,Oslo
1995,2,3,3,3,3,2,2,3,3,1,2,2,3,2,2,2,4.11111111111111,0,4.66666666666667,3.44444444444444,69,4.05555555555556, ,2.45454545454545,1,4,4,4,5,5,5,4,4,4,4,4,4,4,2,5,4,4,4,2,4,5,5,4,3,5,4,4,4,4,4,4,5,4,4,4,4,9:53:25,2.2,2,0,4,4,4,5,5,5,5,5,4,5,3,4,4,1,1,2,3,19,4.66666666666667,3.45454545454545,4,4,4,4,4,3,3,3,3,3,3,3,3,3,4,4,3,4,3,4,2,4,4,4,3,3,2,3,2,4,4,3,4,2,3.23076923076923,2,2,2,1, ,4,4,5, ,4,2,7,7,1, ,2,8,3,1,3,1,1, ,1, , , , , , , , , , ,3,6,5,5,5,4,4,7,3,1,3,2,5,4,3,2,3,3,2,1,3,3,3,3,4,4,4,3,3,3,3,3,2,2,3,4,3,4,4,2,3,3,2,4,3,2,3,3,2,2,4,4,3,3,4,4,3,4,4,2,4,3,3,3,3,2,2.61538461538462,3,2,3,2,3,3,2,3,3,2,3,3,2,3,36.8,36.6,2,36.7,1,-4,4,1,.688881944705291,1.05831054109456,Oslo
1996,2,3,1,4,1,1,4,4,1,2,2,1,3,2,1,2,4.11111111111111, ,4.22222222222222,3.88888888888889,68,2.77777777777778, ,2.27272727272727,1,5,5,5,5,7,5,5,5,3,2,4,5,3,5,5,2,1,2,4,3,4,4,3,1,2,2,2,5,3,4,4,1,2,2,2,2,13:02:43,1.8,2, ,4,5,4,4,5,5,5,2,4,4,4,6,7,1,4,1,2,17,6.5,3.36363636363636,4,4,4,4,3,2,2,4,2,4,4,4,4,2,4,5,2,5,4,5,1,5,5,4,4,4,4,3,2,3,4,4,4,4,3.84615384615385,2,2,2,1, ,4,4,4,1,8,3,6,6,1, ,1, ,1, , ,2,1, ,1, , , , , , , , , , ,4,7,7,7,7,7,7,6,2,2,2,3,3,2,4,2,1,2,3,4,4,3,4,3,4,5,5,5,4,4,5,5,1,1,1,3,3,2,2,3,2,1,4,4,4,3,3,2,2,1,5,3,4,2,5,4,4,5,5,1,4,4,3,3,3,4,2.46153846153846,2,3,3,2,2,3,2,3,3,2,3,3,2,2,34.3,35.8,2,35.05,1,-4,4,1,.688881944705291,-.258600257068884,Oslo
1996,4,2,2,4,2,2,2,2,2,2,2,1,2,1,2,1,6.05555555555556, ,3.77777777777778,3.55555555555556,98,3.55555555555556, ,2.36363636363636,1,6,6,6,7,7,6,7,7,6,5,6,6,6,6,7,6,7,2,5,3,7,3,3,3,3,5,3,3,3,5,3,3,3,3,1,5,10:09:13,1.4,2, ,4,5,4,4,4,4,4,2,4,3,5,4,5,3,2,3,3,20,6.33333333333333,3.45454545454545,4,4,5,4,4,2,4,4,1,2,4,3,4,4,3,4,2,4,4,4,2,4,3,5,3,4,2,5,4,3,4,5,4,4,3.84615384615385,2,2,2,1, ,4,4,5, ,3,1,6,6,2,1,2,8,3,1,2,4,1, ,1, , , , , , , , , , ,6,7,6,7,6,6,6,8,3,1,2,2,5,5,2,2,4,4,2,1,4,4,2,2,4,5,5,4,2,5,4,2,2,4,1,4,1,2,2,2,4,5,4,5,5,2,1,2,4,5,2,4,5,1,4,4,4,5,3,1,3,5,2,3,1,2,2.53846153846154,3,3,3,2,2,2,3,4,2,2,3,4,2,2,36.48,36.56,2,36.52,1,3,4,1,2.72421496315275,.54299762007408,Oslo
1996,3,4,1,3,4,3,4,2,1,2,2,2,1,3,3,2,4,28,4.44444444444444,3.55555555555556,94,4.22222222222222, ,2.63636363636364,1,4,4,4,5,4,3,4,6,4,4,2,4,4,1,5,4,6,4,4,4,5,6,4,3,5,4,4,4,4,4,4,5,4,4,4,4,9:37:59,2.2,2,0,4,5,4,4,4,4,5,5,5,4,4,5,3,2,4,4,2,14,5,3.36363636363636,5,4,5,4,4,2,2,2,2,3,4,2,4,2,4,5,4,3,3,5,2,3,4,5,5,2,4,5,5,4,5,4,5,4,4.23076923076923,2,2,2,1, ,4,4,5, ,2,1,4,2,1, ,2,7,3,1,4,1,1, ,1, , , , , , , , , , ,6,5,4,4,6,5,5,7,2,2,3,2,5,4,2,1,3,4,2,1,2,2,5,5,4,4,4,3,2,4,3,3,3,4,3,3,2,3,3,2,3,1,2,4,5,5,2,4,4,3,4,4,1,4,2,1,4,3,3,4,1,2,1,4,2,1,2.38461538461538,2,3,4,2,2,2,2,3,2,2,3,5,1,3,36.4,36.3,2,36.35,1,-6,4,1,.572577200794009,1.23008151476805,Oslo
1995,2,4,2,4,2,1,3,3,4,3,1,2,4,2,4,3,2.61111111111111, ,3.55555555555556,1,83,2.83333333333333, ,2.63636363636364,1,5,4,1,2,2,1,5,3,2,5,2,1,1,4,1,4,2,2,6,3,4,3,4,1,5,2,1,2,3,3,1,5,2,2,3,1,11:00:41,3,2, ,3,4,3,4,4,3,3,3,4,4,5,6,4,1,2,6,4,17,3.66666666666667,2.63636363636364,4,4,4,4,4,1,1,1,1,1,4,1,1,1,1,1,1,1,1,1,1,2,2,5,5,3,1,3,2,4,3,5,5,2,3.23076923076923,1,2,1,1, ,4,4,4,2,6,3,5,3,1, ,2,3,3,1,2,1,1, ,1, , , , , , , , , , ,3,4,4,4,4,3,3,8,1,2,3,3,4,2,2,1,4,3,4,3,3,3,3,4,2,5,4,4,4,4,3,3,3,3,3,2,2,2,3,2,2,4,1,1,4,3,2,4,2,4,2,3,4,2,2,4,4,3,4,3,1,1,1,1,2,4,2,2,1,2,1,2,2,2,2,2,2,3,4,3,2,36,35.7,2,35.85,1,-11,4,1,-.88123209809703,-.201343265844386,Oslo
1996,4,4,3,4,3,4,4,4,3,4,2,2,2,3,2,2,4.11111111111111, ,3.77777777777778,2.88888888888889,70,3.44444444444444, ,3.54545454545455,1,4,4,3,4,6,5,5,5,4,3,3,3,3,5,5,3,6,3,5,3,5,3,3,2,5,3,3,3,3,3,3,4,4,4,3,3,9:54:17,2.2,2, ,3,4,4,3,5,4,4,2,4,4,4,3,4,2,2,2,2,11,5.16666666666667,2.90909090909091,4,4,3,4,2,2,3,2,2,4,2,2,3,3,4,3,2,3,2,4,2,2,3,2,2,4,1,3,2,2,3,3,2,2,2.38461538461538,1,2,2,1, ,2,2,5, ,3,1,8,5,2,1,2,3,1, , ,1,1, ,1, , , , , , , , , , ,5,6,5,5,5,5,5,7,1,2,4,4,4,2,2,3,4,4,2,2,2,3,4,2,4,3,4,4,4,4,3,4,2,3,3,3,4,3,3,4,2,3,3,2,2,2,4,2,2,2,4,3,3,4,4,3,4,4,4,3,2,3,3,2,3,2,3.30769230769231,4,3,4,3,3,3,3,4,3,3,3,4,3,4,35.5,36,2,35.75,1,-7,4,1,.688881944705291,.428483637625086,Oslo
1992,4,4,4,3,3,4,5,4,4,4,4,3,3,2,3,2,4.83333333333333,0,3.44444444444444,2.55555555555556,87,4, ,3.90909090909091,1,5,5,5,5,5,6,5,5,5,5,5,4,4,4,6,5,6,2,5,3,5,5,5,3,4,3,4,4,4,5,2,4,5,4,3,4,10:39:22,2.6,2,0,3,3,4,4,4,4,3,4,3,2,4,5,5,1,2,3,3,8,4,3.18181818181818,4,4,4,4,4,4,2,1,2,2,4,2,3,1,3,3,2,2,3,4,2,2,2,3,3,3,1,2,2,1,3,2,4,3,2.38461538461538,1,2,2,1, ,4,1,5, ,2,1,3,3,1, ,1, ,1, , ,2,1, ,1, , , , , , , , , , ,5,4,5,4,3,3,3,5,0,2,4,3,3,4,2,3,4,5,3,1,2,4,3,4,3,5,4,4,4,3,3,4,3,3,3,4,2,4,4,3,3,3,3,2,2,3,2,2,3,4,2,3,3,1,3,2,4,4,5,3,3,4,4,3,2,3,3.46153846153846,5,4,4,3,3,3,3,4,3,3,3,5,3,4,36.5,36.7,2,36.6,1,-1,4,1,1.44486278012863,1.00105354987006,Oslo
1992,3,2,2,2,4,2,2,2,2,2,2,2,4,2,2,3,4.22222222222222,0,4,3.88888888888889,87,3.22222222222222, ,2.27272727272727,1,5,5,4,5,5,3,4,5,3,3,4,4,3,4,5,6,5,3,4,3,4,4,4,5,5,3,3,3,2,3,2,3,3,3,2,2,10:36:44,2.6,2,3,3,5,4,4,4,4,4,3,4,4,1,2,2,1,1,1,1,25,5.16666666666667,4.09090909090909,4,5,4,4,4,3,4,5,3,4,5,4,5,2,4,4,4,3,4,5,2,2,2,4,2,4,1,1,1,2,2,2,3,1,2.07692307692308,1,2,2,1, ,4,4,5, ,8,3,6,3,1, ,2,8,3,8,4,2,1, ,1, , , , , , , , , , ,5,6,5,5,5,5,4,7,2,1,2,2,5,4,3,2,3,2,2,3,3,3,4,2,4,4,4,3,3,3,3,4,3,3,3,5,3,3,5,2,4,2,2,2,3,2,2,4,3,3,2,3,3,2,2,3,4,4,4,2,4,3,3,3,2,4,2.76923076923077,3,3,3,2,2,2,3,4,2,3,2,4,4,3,36.2,36.5,2,36.35,1,1,4,1,.805186688616575,.199455672727096,Oslo
1994,4,4,1,4,4,4,3,3,5,4,2,2,3,3,3,2,4.5,0,3.66666666666667,2.88888888888889,95,4.61111111111111, ,3.45454545454545,1,4,4,4,5,4,5,4,3,4,4,6,4,6,4,6,4,6,4,4,4,6,5,6,6,6,4,4,4,4,4,4,6,4,4,4,4,10:30:01,2.6,2,1,3,4,3,4,4,4,3,3,4,4,5,6,6,2,4,4,4,16,4.16666666666667,2.72727272727273,4,4,4,4,2,2,2,2,2,2,2,5,2,4,3,2,2,3,2,3,2,2,3,4,4,4,3,3,2,3,3,3,2,2,2.92307692307692,1,2,2,1, ,4,4,5, ,1, ,7,7,1, ,2,5,3,1,2,1,1, ,1, , , , , , , , , , ,7,4,4,4,3,3,3,6,3,4,3,2,4,4,4,4,4,4,4,2,3,3,2,4,4,4,4,3,4,4,3,4,3,1,3,2,2,4,4,2,4,4,3,5,4,4,4,4,2,1,2,1,3,1,4,4,3,3,4,4,4,4,3,3,2,2,2.84615384615385,3,3,4,3,2,2,3,4,2,3,2,4,3,3,35.7,35.8,2,35.75,1,1,4,1,1.09594854839478,1.63088045333953,Oslo
1995,1,4,1,3,1,1,3,4,3,1,1,2,4,3,4,3,3, ,4,3.33333333333333,70,2.55555555555556, ,2.09090909090909,1,2,5,2,2,7,2,2,2,2,2,2,3,5,3,4,2,5,2,6,1,1,2,2,2,2,2,6,2,4,2,4,2,2,2,2,2,10:40:01,3.2,2, ,3,4,4,4,4,4,4,4,4,4,1,2,1,1,1,3,1,18,4.5,3.45454545454545,5,4,5,4,3,1,3,3,1,5,4,4,4,1,4,2,2,5,3,5,1,2,3,3,3,4,1,2,2,3,4,3,2,2,2.61538461538462,2,2,2,1, ,4,4,5, ,2,2,8,5,1, ,2,3,3,1,4,1,1, ,1, , , , , , , , , , ,4,6,4,4,6,3,3,7,2,1,3,2,4,4,3,3,3,3,3,1,3,3,2,2,4,5,4,4,4,4,3,3,1,1,2,3,1,2,5,1,5,4,2,2,2,2,2,4,3,2,3,4,4,2,3,4,4,4,3,2,3,4,4,3,2,1,2.30769230769231,2,2,2,2,2,2,2,3,3,3,2,4,3,2,35.1,36.3,2,35.7,1,-2,4,1,-.474165494407539,-.487628221966873,Oslo
1992,2,2,2,1,1,2,2,1,1,1,3,3,3,2,2,1,3,1,4,3.44444444444444,87,2.27777777777778, ,1.63636363636364,1,2,2,2,3,3,3,2,5,2,3,2,2,4,3,3,5,6,2,6,2,3,2,3,2,2,2,2,2,2,3,2,1,1,2,2,2,9:07:17,2.2,2,2,3,4,4,5,5,4,3,3,4,4,4,6,5,2,2,5,4,26,5.16666666666667,3.36363636363636,4,4,4,4,3,2,3,3,4,2,4,3,4,3,4,1,5,4,2,5,1,2,2,4,4,4,2,3,3,3,4,2,4,4,3.15384615384615,1,2,2,1, ,4,4,4,1,6,3,8,8,1, ,2,8,3,1,7,1,1, ,1, , , , , , , , , , ,5,6,5,6,5,4,5,8,3,3,4,5,5,1,2,2,2,1,4,2,4,3,3,3,4,4,4,4,4,4,4,4,2,2,3,2,5,4,2,4,3,4,1,2,2,3,3,5,3,2,4,3,4,2,4,3,4,4,4,2,5,4,4,3,3,3,2.92307692307692,3,3,4,3,3,2,2,4,2,3,3,5,3,3,36.1,36.5,2,36.3,1,0,4,1,-.474165494407539,-.77391317808936,Oslo
1996,3,3,1,3,4,3,4,2,3,3,4,2,2,2,3,2,3,0,4.33333333333333,2.77777777777778,69,3.77777777777778, ,3,1,5,2,2,2,6,3,5,5,2,2,2,2,2,2,4,3,3,2,5,3,4,3,5,3,4,5,3,5,2,5,3,5,4,4,2,3,10:48:13,2.2,2,2,3,5,5,4,5,4,4,3,5,4,4,6,5,1,2,6,3,11,4.5,3.18181818181818,4,3,4,4,3,4,2,4,2,3,2,2,4,2,4,2,2,2,2,5,1,2,2,4,3,3,1,3,2,2,4,4,4,4,2.92307692307692,1,2,2,1, ,4,4,5, ,6,2,4,3,1, ,2,6,1, , ,1,1, ,1, , , , , , , , , , ,6,4,3,4,5,5,5,6,2,4,2,3,4,2,2,2,2,4,4,2,3,3,4,4,3,4,4,4,2,2,3,2,2,2,2,2,4,4,2,3,3,2,2,2,4,3,4,4,3,4,4,4,3,4,4,3,4,4,4,3,2,4,2,3,2,4,2.69230769230769,3,3,3,2,3,2,3,4,2,2,3,5,2,3,34.9,36.4,2,35.65,1,-4,4,1,-.474165494407539,.77202558497207,Oslo
1987,2,4,2,3,2,2,2,3,4,3,2,2,2,4,3,3,3.27777777777778,12,5,3.66666666666667,50,3.88888888888889, ,2.63636363636364,2,2,2,3,2,4,2,4,3,5,3,4,2,5,4,3,3,3,5,2,5,4,3,4,4,3,4,6,3,4,6,3,4,3,5,3,4,21:36:36,2.8,2,0,3,5,5,5,5,5,5,5,5,5,5,7,6,2,3,4,6,25,4.33333333333333,3.90909090909091,4,4,4,4,4,4,4,4,4,3,4,3,4,4,4,3,4,3,4,4,1,3,2,2,2,3,2,4,2,3,4,2,2,3,2.61538461538462,1,2,1,2,2,4,4,4,4,3,2,5,2,1, ,1, ,3,1,8,1,1, ,1, , , , , , , , , , ,6,4,4,4,3,5,5,8,1,3,3,2,4,2,4,3,3,3,2,3,3,2,4,3,3,4,3,3,3,4,3,3,3,2,3,3,2,4,3,3,3,2,4,3,3,3,2,3,3,2,4,3,3,3,4,3,2,4,4,4,4,3,4,3,4,2,2.76923076923077,2,2,2,3,3,3,4,2,3,3,3,2,3,3,36.7,36,2,36.35,1,-2,4,1,-.183403634629332,.886539567421065,Oslo
1994,4,2,1,2,3,2,4,2,2,2,1,1,4,1,1,1,3.33333333333333,2,4,2,69,3.44444444444444, ,2.27272727272727,1,3,5,5,5,6,2,3,4,2,2,6,4,2,1,2,6,1,1,3,2,7,3,5,2,5,4,2,5,1,3,3,5,2,3,2,5,10:07:23,1.6,2, ,3,5,5,5,5,4,4,1,4,3,3,4,7,3,2,3,1,20,5.5,2.18181818181818,4,4,2,4,2,1,2,2,1,1,1,2,1,1,4,1,2,1,4,2,2,3,2,2,2,4,1,2,1,4,5,2,1,2,2.38461538461538,2,2,2,1, ,4,4,5, ,5,3,6,6,1, ,2,8,3,1,4,1,1, ,1, , , , , , , , , , ,6,6,7,5,5,4,3,7,3,1,2,3,5,5,4,2,5,4,1,1,4,4,5,1,5,4,5,4,4,4,2,4,2,3,3,2,1,2,4,2,2,5,2,1,4,1,5,3,4,1,5,2,4,1,4,4,1,2,5,1,3,4,2,3,5,1,1.92307692307692,2,1,1,2,2,1,2,2,2,3,3,2,2,2,34.9,36.7,2,35.8,1,-4,4,1,-.12525126267369,.428483637625086,Oslo
1996,2,2,1,2,2,2,2,2,1,1,2,3,2,2,2,2,1.72222222222222,0,4.88888888888889,2.11111111111111,61,1.16666666666667, ,1.72727272727273,1,2,1,1,2,4,2,1,2,2,1,2,1,1,1,1,1,5,1,1,1,2,1,1,1,1,1,1,1,1,2,1,1,1,1,1,2,11:17:01,2.2,2,5,3,5,5,5,5,5,5,4,5,5,4,5,5,1,2,2,1,22,4,2.27272727272727,4,2,2,4,2,1,2,3,2,1,2,2,1,1,4,4,1,2,2,2,1,3,2,4,4,4,3,4,3,3,4,4,4,2,3.38461538461538,2,2,1,1, ,4,4,4,4,5,3,7,7,2,1,2,8,1, , ,2,1, ,1, , , , , , , , , , ,4,5,4,4,4,3,3,8,3,2,2,2,4,3,3,3,2,2,2,1,3,3,5,3,4,4,5,5,5,4,4,4,1,1,1,4,2,4,5,2,2,2,1,1,4,4,1,2,3,3,4,2,2,2,4,4,2,4,2,2,4,5,1,2,2,3,2.46153846153846,2,3,4,2,1,2,2,4,2,2,3,5,2,3,36.7,36.9,2,36.8,1,1,4,1,-1.8116700493873,-1.91905300257931,Oslo
1994,4,4,3,4,3,3,4,3,2,4,1,2,2,2,3,3,4,0,4,3.22222222222222,96,2, ,3.18181818181818,1,7,5,4,6,7,3,6,5,3,1,4,1,3,2,4,5,5,1,2,2,4,2,3,1,1,2,2,2,1,2,3,1,4,2,1,1,10:45:30,2.4,2,1,3,5,4,4,4,5,4,3,4,3,5,6,7,1,5,1,1,22,5.66666666666667,2.81818181818182,3,2,4,4,1,2,3,4,1,3,4,2,3,3,2,4,3,4,3,5,1,4,4,3,3,4,2,3,3,3,4,4,4,2,3.30769230769231,2,2,2,1, ,4,4,4,1,5,5,8,6,1, ,2,8,3,1,3,1,1, ,1, , , , , , , , , , ,3,7,7,7,6,4,4,8,3,5,5,1,5,4,5,5,5,5,4,1,3,3,4,3,5,5,4,3,3,5,3,3,2,2,2,2,3,4,4,2,3,3,3,2,4,4,1,3,2,3,2,4,3,1,4,4,4,4,4,2,4,4,3,3,2,4,2.69230769230769,3,3,2,3,3,3,3,3,2,2,3,5,2,3,36.6,37,2,36.8,1,-6,4,1,.572577200794009,-1.06019813421185,Oslo
1995,4,2,4,4,4,4,4,3,3,2,2,2,2,3,2,2,3.11111111111111,0,4.11111111111111,2.22222222222222,93,2.61111111111111, ,3.27272727272727,1,5,2,2,2,6,4,2,5,3,2,3,2,2,2,5,3,5,1,3,2,5,3,2,2,2,2,2,2,3,2,2,2,4,4,2,3,10:17:28,2.2,2,1,3,5,4,4,5,5,4,2,4,4,3,3,3,1,1,1,1,15,2.33333333333333,2.36363636363636,4,2,3,3,2,2,2,2,2,2,2,2,2,2,2,2,2,2,2,4,1,4,3,4,4,3,4,3,4,3,4,4,5,3,3.69230769230769,2,2,2,1, ,4,4,4,1,5,3,6,5,1, ,2,8,1, , ,1,1, ,1, , , , , , , , , , ,3,1,2,2,3,3,3,7,3,2,4,2,4,2,3,2,2,5,4,1,2,3,4,4,4,4,4,5,4,4,4,4,1,1,1,2,4,5,4,4,1,4,4,2,3,2,2,2,2,4,3,4,4,3,4,4,4,3,2,4,4,3,4,2,2,2,2.84615384615385,3,4,4,2,3,2,3,3,2,2,4,2,2,3,36.5,36.4,2,36.45,1,0,4,1,-.357860750496256,-.430371230742376,Oslo
1973,4,1,4,2,1,4,4,1,1,4,1,2,1,1,1,1,3.83333333333333,1,3.66666666666667,1.88888888888889,70,2.61111111111111, ,2.45454545454545,2,6,2,5,3,6,5,2,3,5,5,5,5,6,2,2,3,3,1,2,1,5,1,1,1,1,2,2,5,5,2,1,1,5,5,1,6,11:57:05,1.2,2,0,3,3,5,4,5,5,3,2,4,2,5,7,6,2,3,3,4,13,4.5,1.27272727272727,2,2,1,2,1,1,1,1,1,1,1,1,1,1,2,1,1,2,4,4,2,3,5,4,5,5,1,3,4,3,3,4,3,3,3.53846153846154,2,2,3,3,3,4,2,5, ,2,2,7,3,1, ,2,5,1, , ,2,1, ,1, , , , , , , , , , ,6,3,5,5,5,3,3,7,2,4,5,3,5,1,4,3,3,5,3,4,4,4,4,3,4,5,5,5,3,4,5,3,1,1,3,2,3,5,4,2,2,4,3,4,4,4,2,2,4,3,5,2,2,3,4,1,4,5,5,2,2,4,1,3,4,2,2.61538461538462,2,3,4,2,2,3,3,3,2,3,3,4,2,2,36,35.9,2,35.95,1,-2,4,1,.398120084927084,-.430371230742376,Oslo
1995,2,2,3,2,2,3,3,2,2,2,2,3,2,2,3,2,4, ,4,2.88888888888889,69,4, ,2.27272727272727,1,4,4,4,4,4,4,4,4,4,4,4,4,4,4,4,4,4,4,4,4,4,4,4,4,4,4,4,4,4,4,4,4,4,4,4,4,10:50:41,2.4,2, ,3,4,4,4,4,4,4,4,4,4,4,4,5,3,3,2,3, ,5,2.63636363636364,4,4,4,4,2,1,2,2,2,2,2,3,4,2,4,2,2,2,3,4,2,3,3,4,4,4,4,4,3,4,4,2,3,3,3.46153846153846,2,2,2,1, ,4,4,5, ,3,3,8,8,2,3,2,8,1, , ,1,1, ,2,Kristen menighet,Kor, , , ,2,4,0,0,0,4,5,6,5,6,4,4,8,3,2,4,3,5,4,3,2,4,2,2,1,3,3,2,1,4,4,4,3,3,4,3,3,3,2,3,4,2,2,4,2,2,3,2,4,3,3,4,2,2,2,4,4,3,2,4,4,4,3,5,2,2,4,4,4,2,2,1.84615384615385,3,2,2,2,2,1,2,2,2,2,2,4,1,1,36.7,36.5,2,36.6,1,-4,4,1,.572577200794009,1.00105354987006,Oslo
1995,2,3,2,2,2,2,4,2,1,2,3,2,2,2,3,2,2.72222222222222,3,3.88888888888889,3.33333333333333,87,2.05555555555556, ,2.27272727272727,1,2,2,1,3,6,2,5,2,2,2,3,3,1,2,2,4,5,2,2,1,3,2,2,2,2,2,6,2,1,1,1,2,2,2,1,3,10:36:41,2.2,2,1,3,4,4,4,4,4,3,4,4,4,4,5,5,2,3,4,4, ,3,3.27272727272727,4,4,4,5,3,3,3,3,2,2,3,3,3,2,4,3,3,4,4,4,1,3,3,4,4,3,3,4,2,2,4,3,3,2,3.07692307692308,2,2,1,1, ,4,4,4,1,5,3,5,4,2,1,2,3,3,1,1,1,1, ,2,Bibelgruppe, , , , ,2,0,0,0,0,5,1,3,2,4,3,4,10,1,3,3,2,4,3,4,3,3,4,4,1,4,4,4,2,4,4,4,4,3,4,4,4,2,2,1,4,2,3,3,2,2,3,4,4,3,3,2,2,3,4,4,4,3,2,4,4,4,4,4,2,2,4,4,3,2,2,2.07692307692308,2,2,2,2,2,2,2,3,3,1,2,4,2,2,36.3,36.2,2,36.25,1,1,4,1,-.764927354185747,-1.00294114298735,Oslo
1994,1,1,1,2,1,1,1,1,1,1,1,3,3,2,4,2,3.83333333333333,1,3.88888888888889,2.22222222222222,90,4.05555555555556, ,1.09090909090909,1,4,4,4,4,4,4,4,4,4,4,4,4,4,2,4,4,3,4,4,4,5,4,4,4,4,4,4,4,4,4,4,4,4,4,4,4,10:36:31,2.8,2,6,3,4,4,4,4,4,4,3,4,4,3,5,4,1,3,4,2,24,3.66666666666667,2.36363636363636,4,2,3,3,2,2,2,2,2,2,2,2,2,1,3,2,2,2,2,4,2,4,5,5,4,4,2,3,3,4,4,4,3,2,3.61538461538462,2,2,2,1, ,4,4,5, ,8,5,8,5,1, ,2,8,3,1,5,3,1, ,1, , , , , , , , , , ,3,4,4,4,4,3,2,7,3,4,4,3,4,2,3,2,4,4,4,2,3,2,3,4,4,3,4,3,3,4,3,4,3,3,3,2,3,4,3,3,3,4,2,4,3,3,3,2,4,2,2,3,2,2,4,4,2,2,4,2,4,4,3,3,3,3,2,2,2,2,2,2,2,2,2,2,2,2,3,2,2,36.8,36.9,2,36.85,1,-1,4,1,.398120084927084,1.05831054109456,Oslo
1995,2,2,2,2,2,2,4,1,1,2,1,1,1,2,2,2,2.55555555555556,0,4.22222222222222,2.88888888888889,87,1.5, ,1.90909090909091,1,3,2,3,3,1,5,2,5,6,2,1,1,1,3,2,3,2,1,1,1,3,2,1,1,2,1,1,1,1,2,2,1,1,2,2,2,10:17:25,1.6,2, ,3,5,5,5,5,5,5,2,2,4,4,5,5,1,2,3,2,18,3,3.36363636363636,5,5,4,4,4,2,2,2,2,3,4,4,4,1,4,2,1,4,2,4,1,4,5,5,4,4,5,5,5,5,5,5,5,3,4.61538461538462,2,2,1,1, ,4,4,4,2,8,3,7,5,1, ,1, ,2,1,1,1,1, ,1, , , , , , , , , , ,3,2,1,3,5,4,4,7,2,4,4,2,5,2,4,2,5,4,2,1,4,4,4,2,4,5,5,5,5,5,3,2,1,1,1,2,2,2,2,2,2,2,2,1,3,2,2,3,1,2,4,4,4,2,5,4,5,3,5,1,4,4,2,3,2,3,2.84615384615385,4,2,4,2,2,3,2,4,3,3,3,5,2,3,35.8,36.5,2,36.15,1,1,4,1,-.939384470052672,-1.57551105523232,Oslo
1991,4,3,1,3,4,3,2,3,2,2,4,2,2,2,3,2,3.22222222222222, ,4.22222222222222,2.55555555555556,52,2, ,2.81818181818182,1,6,2,2,3,6,2,2,2,2,2,2,3,4,2,5,6,6,1,2,2,2,3,2,2,2,2,2,2,2,2,2,2,2,2,1,2,10:56:06,2.2,2, ,3,5,5,4,5,5,3,3,4,4,4,6,6,3,4,3,3,28,5,3,4,3,3,4,2,2,2,2,3,4,4,2,2,2,4,2,3,2,2,4,1,2,4,3,4,4,2,3,2,2,4,2,3,3,2.92307692307692,2,2,1,1, ,4,4,4,2,8,4,8,8,2,1,2,8,3,1,6,1,1, ,1, , , , , , , , , , ,6,5,5,5,5,4,4,9,3,1,5,2,4,3,2,2,2,4,4,2,4,4,4,4,4,4,4,4,4,4,4,3,1,2,2,2,3,4,4,2,2,3,2,3,3,2,3,2,2,3,4,4,2,2,3,4,2,4,2,2,2,3,2,3,2,2,2.84615384615385,3,3,4,2,2,3,2,4,2,3,3,4,3,3,36.1,36.3,2,36.2,1,-7,4,1,-.241556006584973,-1.06019813421185,Oslo
1994,3,4,1,3,2,3,3,4,3,4,3,2,2,2,5,2,4.11111111111111,0,3.88888888888889,3,91,2.55555555555556, ,3,1,6,4,5,5,4,4,1,5,4,2,5,5,2,3,5,5,7,2,5,2,4,2,2,2,3,2,2,2,3,4,2,2,2,2,2,3,11:04:52,2.6,2,1,3,4,4,4,4,4,4,3,4,4,3,2,2,1,1,1,1,17,3.83333333333333,2.27272727272727,2,3,3,2,2,2,2,2,1,4,2,3,4,3,4,2,2,3,2,4,1,2,2,5,3,4,2,2,2,2,3,4,4,2,2.84615384615385,2,2,1,1, ,4,1,4,1,4,1,6,6,1, ,2,4,3,1,5,1,1, ,1, , , , , , , , , , ,3,4,4,3,5,4,4,8,1,4,4,4,2,2,4,4,2,5,4,2,1,2,4,4,3,3,2,4,3,2,4,3,2,3,2,2,4,4,3,3,3,3,1,1,4,4,1,2,4,3,3,4,4,4,3,4,4,4,3,4,3,3,3,3,2,4,3.61538461538462,4,2,4,3,4,3,4,4,4,4,3,4,4,4,36.5,36.7,2,36.6,1,-2,4,1,.688881944705291,-.487628221966873,Oslo
1996,2,5,1,4,2,1,3,4,2,3,2,3,4,2,4,4,4.33333333333333,8,3.22222222222222,3.77777777777778,87,4.38888888888889, ,2.63636363636364,1,4,4,4,4,4,5,4,6,4,4,5,4,4,2,6,4,6,4,4,4,7,5,5,5,5,4,4,4,4,4,4,4,4,4,4,4,10:50:03,3.4,2,2,3,4,3,2,4,3,4,2,4,3,3,2,2,1,1,1,1,23,3.16666666666667,3.54545454545455,4,3,4,3,4,2,2,4,4,5,4,4,4,3,5,3,3,4,3,5,2,2,1,3,3,2,1,1,2,3,2,2,3,2,2.07692307692308,2,1,2,1, ,4,4,5, ,8,6,5,5,2,1,2,4,3,1,4,1,1, ,1, , , , , , , , , , ,3,3,3,2,4,4,4,8,2,2,4,3,4,1,4,3,2,5,4,2,1,1,4,4,3,3,3,3,2,4,3,3,3,4,3,1,2,2,2,3,3,4,2,5,2,3,1,4,3,5,4,3,3,4,2,4,4,4,4,4,3,2,2,1,1,1,2.92307692307692,3,3,3,2,4,2,3,4,2,3,3,4,3,3,35.5,36.4,2,35.95,1,-1,4,1,.921491432527858,1.40185248844154,Oslo
1991,3,2,3,2,3,3,2,2,2,2,2,2,2,2,4,3,2.55555555555556,0,3.66666666666667,2.55555555555556,77,3, ,2.36363636363636,1,2,2,2,2,4,2,2,2,6,2,4,2,2,2,2,4,2,2,2,2,2,2,2,3,5,5,3,4,2,4,4,3,2,4,2,3,9:57:00,2.6,2,10,3,4,4,4,4,4,4,3,3,3,3,5,3,4,4,4,4,18,5.83333333333333,2.90909090909091,4,4,4,3,2,2,2,3,2,2,4,3,2,2,3,2,2,4,2,3,1,4,3,4,4,3,2,3,4,4,4,3,4,4,3.53846153846154,2,2,2,1, ,4,4,5, ,5,3,4,8,2,1,2,5,1, , ,1,1, ,1, , , , , , , , , , ,5,6,6,6,6,6,5,7,3,3,4,3,4,3,3,3,3,4,2,4,4,4,3,3,4,4,4,4,4,4,3,3,2,2,2,3,4,4,4,3,4,3,2,3,4,2,2,2,2,4,3,4,3,3,3,3,2,3,3,3,4,4,3,3,3,3,2.84615384615385,3,3,3,2,3,3,3,3,2,3,3,4,3,3,37,37,2,37,1,-6,4,1,-.939384470052672,-.0295722921708937,Oslo
1984,3,2,3,2,3,3,3,2,2,2,3,2,2,2,2,2,5,0,3.88888888888889,2.11111111111111,80,4.33333333333333, ,2.54545454545455,1,5,5,5,5,5,5,6,5,5,4,6,6,2,2,6,7,5,6,3,3,6,5,5,3,5,5,6,2,3,2,2,6,5,5,6,6,19:28:21,2,2,0,3,4,4,4,4,4,3,4,4,4,5,7,6,3,4,4,6,16,7,2.54545454545455,4,4,2,4,2,2,2,2,2,2,2,2,2,2,2,3,2,2,2,2,1,3,4,4,4,4,4,4,4,2,4,5,5,4,3.92307692307692,2,2,3,3,3,4,4,5, ,3,3,6,3,1, ,2,5,1, , ,2,1, ,1, , , , , , , , , , ,7,7,7,7,7,7,7,7,2,1,4,2,4,4,2,4,4,4,4,2,2,3,4,3,3,3,3,3,3,3,4,3,2,4,3,2,2,4,4,2,4,4,4,4,5,4,2,2,4,4,2,4,2,2,3,4,3,2,3,2,5,3,3,4,2,3,2.53846153846154,2,3,4,2,3,2,2,3,2,2,3,5,2,3,36,35.9,2,35.95,1,-7,4,1,1.61931989599556,1.34459549721704,Oslo
1981,1,1,1,1,1,1,1,1,1,1,1,3,1,1,1,2,2.72222222222222,1,4,3.11111111111111,76,2.11111111111111, ,1,1,1,2,2,1,5,2,2,2,7,1,2,2,2,2,2,6,6,2,1,2,4,2,2,2,2,3,2,1,2,4,2,1,2,2,2,2,14:01:31,1.6,2,0,3,4,4,4,5,3,4,4,4,4,4,7,7,5,5,1,5,16,4.16666666666667,3.81818181818182,4,3,4,4,4,4,3,4,4,4,4,4,4,2,4,4,2,4,2,2,1,5,4,5,5,1,2,2,4,3,3,5,3,2,3.38461538461538,2,2,1,2,1,4,2,4,4,3,3,3,2,1, ,2,4,2,1,1,1,1, ,1, , , , , , , , , , ,5,4,4,3,5,4,4,9,1,3,5,2,4,1,4,4,2,4,4,2,3,3,4,5,4,3,4,3,3,4,5,4,2,2,4,3,4,4,2,4,4,4,2,2,4,2,2,2,2,2,4,4,2,2,4,2,2,2,4,2,2,4,4,2,4,4,3.30769230769231,3,3,5,3,3,3,3,4,4,3,3,4,3,3,36.5,36.6,2,36.55,1,-6,4,1,-.764927354185747,-.945684151762852,Oslo
1996,3,3,1,2,3,3,3,2,3,3,2,2,2,2,3,2,4.11111111111111, ,4.33333333333333,2.88888888888889,70,4, ,2.54545454545455,1,4,4,4,4,4,4,4,4,4,4,4,4,4,4,4,4,6,4,4,4,4,4,4,4,4,4,4,4,4,4,4,4,4,4,4,4,9:55:39,2.2,2, ,3,4,5,4,5,5,4,2,5,5,5,6,7,4,3,4,4,37,6.66666666666667,3.09090909090909,4,4,4,4,4,2,2,2,2,2,4,2,2,2,2,4,4,2,4,4,2,2,4,5,5,4,3,4,4,3,4,3,4,2,3.61538461538462,2,2,2,1, ,4,4,5, ,5,1,4,3,2,1,2,8,1, , ,1,2,8,2,Politisk ungdomsorganisasjon,Kollokvie,Familie,Nære venner,Venner,6,3,3,2,4,6,7,6,7,7,7,7,9,3,2,4,3,4,2,2,2,4,4,4,2,2,3,4,4,4,4,4,3,4,4,3,4,3,2,3,2,4,4,2,4,4,2,2,2,3,4,2,2,4,2,4,3,4,4,2,4,4,4,4,4,2,4,4,4,4,3,3.84615384615385,4,4,4,3,4,4,4,4,4,4,4,4,3,4,34.6,36.1,2,35.35,1,-5,4,1,.688881944705291,1.00105354987006,Oslo
1995,2,2,1,2,1,2,4,1,1,2,1,1,1,1,2,1,3, ,4.22222222222222,2.77777777777778,76,1.83333333333333, ,1.72727272727273,1,2,2,1,4,5,3,2,5,1,1,4,2,1,5,1,6,6,3,1,2,5,2,2,1,1,1,2,2,1,3,1,3,1,2,1,2,11:13:40,1.2,2, ,3,5,5,4,4,4,3,3,5,5,4,5,6,2,3,3,1,13,3.66666666666667,3.72727272727273,4,3,4,4,3,2,5,5,3,4,4,4,3,1,3,1,1,3,4,5,1,3,3,4,2,1,1,2,2,2,2,4,3,3,2.46153846153846,2,2,2,1, ,2,2,5, ,6,2,7,7,1, ,2,8,1, , ,1,1, ,1, , , , , , , , , , ,4,4,4,3,4,3,3,6,3,2,2,1,5,5,3,1,4,4,4,1,3,3,3,3,5,5,5,4,4,3,4,4,2,2,2,3,2,4,3,3,5,4,2,4,3,2,1,2,2,3,2,2,4,1,1,4,4,5,4,1,3,3,3,4,2,2,2.53846153846154,3,3,4,2,2,2,3,3,2,2,2,4,3,2,36.3,36.4,2,36.35,1,1,4,1,-.474165494407539,-1.23196910788534,Oslo
 ,3,3,2,3,4,2,3,2,4,3,2,2,3,3,4,4,3.11111111111111, ,5,3.88888888888889, ,3.61111111111111, ,2.81818181818182, ,4,3,3,3,2,3,3,3,3,3,5,3,3,3,3,3,3,3,5,3,3,4,3,5,5,3,3,5,3,4,3,4,3,3,3,3,13:18:18,3.2, , ,3,5,5,5,5,5,5,5,5,5,5,7,6,2,1,4,4,28,4.66666666666667,3.81818181818182,4,4,4,4,4,3,3,4,4,4,4,4,4,4,4,4,2,5,4,4, ,2,3,2,2,3,2,4,2,3,4,2,3,2,2.61538461538462, , ,1,2,1,4,4,4,4,3,2,8,6,1, ,1, ,3,1,8,1,1, ,1, , , , , , , , , , ,7,5,4,4,4,4,4,8,2,2,2,3,4,3,4,3,3,4,3,2,3,3,5,2,3,4,4,4,4,4,4,4,2,2,4,4,2,2,2,3,2,3,2,3,4,3,2,3,4,3,3,4,4,2,3,4,2,3,2,3,2,3,3,2,3,1,2.38461538461538,3,2,3,2,2,2,2,2,2,2,4,4,2,3,37, , ,37,1, ,4,1,-.357860750496256,.600254611298578,Oslo
 ,1,1,1,2,1,1,1,1,1,1,1,5,3,2,2,4,1.94444444444444,0,4.44444444444444,1.55555555555556, ,2.11111111111111, ,1.09090909090909, ,2,2,1,2,6,3,1,2,2,1,2,2,2,2,1,1,2,1,2,2,2,2,2,1,2,2,2,1,2,1,2,2,3,5,3,2,10:26:57,3.2, ,0,3,5,5,4,5,5,4,4,4,4,5,7,4,3,3,3,5,27,5.83333333333333,1.81818181818182,2,2,2,2,2,2,1,1,2,2,2,1,1,1,3,1,1,1,1,4, ,4,4,4,3,4,4,3,3,3,4,4,4,4,3.69230769230769, , ,1,1, ,4,4,4,2,8,2,8,6,1, ,2,6,3,8,3,1,1, ,1, , , , , , , , , , ,6,6,6,6,6,5,5,8,3,2,2,2,5,4,4,3,4,1,1,1,4,3,3,2,3,4,4,5,5,4,5,5,1,1,1,5,2,2,5,1,3,3,2,4,4,4,2,2,1,2,3,3,4,2,3,3,4,4,4,2,4,4,4,3,3,4,2.30769230769231,2,2,3,2,3,2,2,3,3,2,2,5,2,2,36, , ,36,1, ,4,1,-1.57906056156473,-.945684151762852,Oslo
1994,4,5,1,4,2,3,5,1,2,3,4,2,1,2,2,1,3.66666666666667, ,4.88888888888889,2.33333333333333,75,3.16666666666667, ,3.09090909090909,1,5,2,1,5,4,4,4,6,4,1,5,1,1,4,6,5,7,1,1,2,5,3,2,3,3,5,3,3,3,4,2,6,1,3,5,3,9:29:01,1.6,2, ,2,5,5,4,5,5,5,5,5,5,5,6,4,2,4,4,4,22,4.5,2.63636363636364,4,4,3,4,1,1,3,2,3,1,3,1,4,2,2,4,1,1,2,4,2,2,4,5,5,4,3,3,2,3,3,4,4,2,3.38461538461538,2,2,2,1, ,4,4,5, ,4,4,7,5,1, ,2,7,3,1,5,2,1, ,1, , , , , , , , , , ,5,4,5,3,6,4,4,7,3,1,3,4,4,2,1,2,3,1,3,1,2,3,4,2,4,3,4,1,3,4,1,4,1,2,1,4,3,4,4,2,3,3,3,4,3,3,4,2,3,3,4,3,2,2,4,4,3,3,4,1,1,2,4,4,3,3,2.92307692307692,3,5,5,2,2,3,3,3,3,2,3,4,1,3,35.8,36.5,2,36.15,1,0,4,1,.223662969060159,.142198681502598,Oslo
1994,3,3,2,3,2,3,3,3,3,2,3,2,2,3,4,3,4.72222222222222, ,3,3,82,4.27777777777778, ,2.72727272727273,1,5,5,5,5,5,6,5,4,6,4,5,3,6,3,4,4,5,5,4,4,6,4,4,5,4,4,4,4,4,4,6,5,4,5,2,4,10:40:04,2.8,2, ,2,3,3,4,4,3,2,2,3,3,3,2,2,1,1,2,1,9,2.33333333333333,3.36363636363636,4,3,4,3,4,4,3,3,3,2,4,4,4,2,4,4,2,2,2,3,2,4,3,4,4,4,3,3,3,3,3,4,3,4,3.46153846153846,1,2,2,1, ,4,1,4,1,3,2,3,2,2,1,2,1,1, , ,1,1, ,1, , , , , , , , , , ,2,2,2,2,3,3,2,8,1,3,5,3,2,2,2,3,3,4,4,2,2,3,4,4,3,3,4,3,3,2,3,2,3,4,3,2,4,4,4,4,2,3,2,1,2,4,2,2,4,4,2,3,2,2,4,2,2,3,2,2,2,2,3,2,1,4,2.84615384615385,4,4,4,2,3,2,2,3,2,2,4,4,2,3,35.2,35.3,2,35.25,1,-1,4,1,1.32855803621735,1.28733850599255,Oslo
1994,3,3,1,3,2,4,4,3,1,4,1,2,2,3,4,3,4.72222222222222, ,3.55555555555556,2.33333333333333,87,3.11111111111111, ,2.63636363636364,1,5,5,6,6,5,5,3,6,4,5,5,6,4,4,4,5,6,1,2,5,5,2,2,2,5,3,4,2,2,4,2,3,4,3,3,3,9:44:11,2.8,2, ,2,5,3,4,4,4,3,4,3,2,2,3,2,1,1,2,1,15,3.66666666666667,3,4,4,4,4,4,2,1,1,4,1,4,2,3,1,3,4,1,4,1,2,1,3,4,1,3,4,3,4,4,4,3,3,5,4,3.46153846153846,1,2,1,1, ,4,4,4,1,4,3,5,1,1, ,2,3,3,1,3,1,1, ,1, , , , , , , , , , ,4,5,4,4,2,3,5,8,1,2,4,4,4,3,1,1,4,1,2,1,1,1,5,5,3,4,1,4,3,4,4,2,1,4,2,1,4,5,2,3,5,2,4,1,3,5,1,5,4,4,3,4,3,2,2,4,4,4,2,3,4,3,1,3,4,3,3.07692307692308,3,3,4,3,4,5,3,2,2,3,2,4,2,4,35.6,36.1,2,35.85,1,1,4,1,1.32855803621735,.0849416902781012,Oslo
1994,3,2,1,5,4,5,4,3,4,4,3,1,1,1,3,1,4.33333333333333, ,3.55555555555556,2,70,3.94444444444444,1,3.45454545454545,1,5,4,4,4,6,5,5,3,5,4,5,4,4,1,5,5,5,4,5,3,7,4,4,2,3,6,5,4,3,5,2,3,4,4,3,4,11:04:10,1.4,2, ,2,5,4,3,4,4,3,3,3,3,5,6,3,3,1,1,1,10,3.16666666666667,2.27272727272727,4,3,2,3,2,1,1,3,2,2,2,2,3,1,4,1,1,1,1,4,2,5,4,3,1,4,4,5,2,3,5,4,3,4,3.61538461538462,1,1,2,1, ,4,4,5, ,3,1,3,2,1, ,2,8,1, , ,2,1, ,1, , , , , , , , , , ,4,3,4,2,3,3,3,6,2,4,2,2,4,2,2,1,1,4,3,3,2,1,4,5,5,2,3,3,3,3,3,4,3,2,3,2,4,4,2,2,2,2,2,4,5,1,5,4,1,1,4,2,1,2,3,3,1,1,2,2,4,3,1,2,5,3,2.84615384615385,4,3,3,2,3,2,4,3,3,2,2,5,2,4,35.6,36.2,2,35.9,1,-2,4,1,.921491432527858,.943796558645563,Oslo
1995,2,2,1,2,3,2,2,2,1,1,2,2,2,2,3,2,1.77777777777778,3,4.77777777777778,1.33333333333333,87,1.44444444444444, ,1.81818181818182,1,1,1,1,2,4,2,1,1,1,2,7,1,1,1,1,3,1,1,1,1,2,1,2,1,1,1,1,1,1,2,1,1,4,2,1,2,10:44:01,2.2,2,0,2,5,5,5,5,5,5,3,5,5,4,5,4,1,1,3,5,12,3.83333333333333,1.36363636363636,2,2,2,2,1,1,1,1,1,1,1,2,1,1,1,1,1,1,1,3,1,2,3,4,3,2,2,2,2,2,3,4,4,3,2.76923076923077,1,2,1,1, ,4,1,4,1,3,1,5,5,1, ,1, ,3,1,1,1,1, ,1, , , , , , , , , , ,3,4,4,4,4,4,4,7,1,4,4,4,4,1,2,3,2,5,3,3,3,3,4,4,5,5,3,4,3,5,5,3,1,1,1,2,4,4,4,2,2,4,1,1,4,4,3,2,1,2,5,2,3,4,4,4,5,5,3,2,5,3,5,4,2,2,2.23076923076923,3,2,3,1,2,1,3,2,2,2,3,4,2,3,36.6,36.3,2,36.45,1,-1,4,1,-1.75351767743165,-1.63276804645682,Oslo
1992,2,3,2,3,2,2,2,3,2,2,2,1,2,2,3,2,2.77777777777778,7,1.44444444444444,2.33333333333333,58,4.44444444444444, ,2.27272727272727,1,2,2,3,2,3,2,2,6,2,2,2,2,3,2,3,5,5,2,3,3,6,6,3,6,3,5,5,3,4,6,2,5,6,6,3,5,10:36:00,2,2,0,2,2,1,3,2,1,1,1,1,1,5,5,2,1,4,4,2, ,1.83333333333333,3.09090909090909,4,4,3,4,3,1,3,4,2,2,4,2,4,1,4,1,1,2,2,4,2,3,4,4,2,4,2,3,2,4,4,3,4,4,3.30769230769231,1,2,2,1, ,4,1,5, ,1, ,1,1,1, ,1, ,1, , ,1,1, ,2,Studentforening, , , , ,6,0,0,0,0,1,2,2,2,2,2,1,5,0,2,2,4,4,2,2,2,4,5,5,2,1,2,4,4,3,2,2,2,2,2,2,2,4,5,4,1,4,4,4,4,2,4,2,1,4,4,2,2,4,2,4,2,2,2,1,4,2,2,2,4,2,2,4,4,2,4,3.53846153846154,4,4,4,3,4,4,3,4,4,4,1,3,4,3,34.3,36.5,2,35.4,1,-2,4,1,-.706774982230106,1.45910947966604,Oslo
1996,2,3,1,3,1,2,2,3,3,2,2,4,2,2,5,3,4.38888888888889,9,4.77777777777778,3.44444444444444,89,3.27777777777778, ,2.18181818181818,1,5,5,5,5,7,5,2,3,5,3,5,5,5,2,6,5,5,1,4,4,5,2,5,2,3,4,2,4,3,5,2,3,3,4,1,3,11:03:24,3.2,2,5,2,5,5,5,5,5,5,3,5,5,4,6,6,2,5,5,3,16,5.33333333333333,3.54545454545455,4,4,4,4,4,2,4,4,2,3,4,4,5,3,5,1,2,5,1,5,1,3,4,4,4,5,2,3,3,4,3,3,2,3,3.30769230769231,2,2,2,1, ,4,4,4,1,5,4,6,5,1, ,2,3,1, , ,1,1, ,1, , , , , , , , , , ,4,6,6,5,6,5,5,7,2,2,3,2,4,4,4,3,3,5,4,2,2,1,4,5,3,4,4,5,4,3,2,2,1,1,1,2,3,4,4,2,4,4,4,3,4,3,1,3,2,4,2,5,4,1,4,4,4,3,4,4,4,3,4,4,1,4,2.92307692307692,3,3,3,2,2,3,2,4,2,3,4,3,3,4,35.61,36.18,2,35.895,1,0,4,1,.9796438044835,.256712663951593,Oslo
1995,2,1,1,1,2,3,3,2,1,2,1,2,2,1,3,2,3.66666666666667,1,3.55555555555556,3.55555555555556,78,4.94444444444444, ,1.72727272727273,1,4,3,5,5,5,4,2,5,6,2,5,3,3,1,5,3,3,2,5,3,6,6,5,5,5,6,6,5,4,3,5,5,5,6,4,5,10:58:19,2,2,2,2,4,4,4,4,4,3,3,2,4,4,6,3,2,2,4,4,13,3.83333333333333,3.36363636363636,4,4,4,4,4,2,2,2,4,3,4,4,4,2,4,3,4,4,4,3,2,2,3,2,2,4,1,4,3,3,4,2,5,2,2.84615384615385,2,2,2,1, ,4,4,5, ,4,2,5,5,1, ,2,8,1, , ,1,1, ,1, , , , , , , , , , ,3,5,4,5,3,3,2,6,3,2,2,2,5,1,1,2,5,4,4,1,1,2,4,3,4,2,2,3,4,4,3,4,3,4,3,2,2,5,5,3,5,4,4,4,4,4,1,3,3,4,2,3,2,2,4,4,4,2,4,2,2,2,4,4,1,5,2.84615384615385,4,2,4,2,2,2,3,4,2,2,4,5,2,4,36.2,36.1,2,36.15,1,-1,4,1,.223662969060159,1.97442240068652,Oslo
1994,4,4,1,4,3,2,3,4,3,4,3,2,2,2,4,3,3.11111111111111, ,3.44444444444444,2.77777777777778,48,2.66666666666667, ,3.18181818181818,1,5,2,2,4,4,4,2,6,2,2,2,5,5,1,5,2,2,1,4,2,4,3,3,3,2,2,2,4,2,5,2,2,2,2,2,2,11:01:03,2.6,2, ,2,4,4,3,4,3,3,3,3,4,4,3,3,2,2,4,3,14,4.16666666666667,2.90909090909091,3,3,3,4,2,3,2,4,1,4,3,3,4,2,3,2,2,2,3,4,1,3,2,2,2,3,2,2,3,3,3,4,3,2,2.61538461538462,1,2,1,1, ,4,4,4,1,5,3,4,4,1, ,2,8,1, , ,1,1, ,1, , , , , , , , , , ,6,4,4,3,4,4,3,7,2,1,3,2,5,3,3,3,3,4,3,2,2,2,3,4,4,4,3,5,2,3,4,4,2,2,2,4,2,4,4,2,4,4,2,2,2,2,1,3,2,2,4,4,3,2,3,3,4,3,3,2,2,2,2,3,4,2,3.23076923076923,4,3,5,3,2,4,2,4,3,3,2,5,3,4,36,36.5,2,36.25,1,0,4,1,-.357860750496256,-.373114239517878,Oslo
1996,4,4,2,3,3,4,4,4,2,4,4,2,2,2,3,2,5.27777777777778, ,4.22222222222222,2.22222222222222,63,3.83333333333333, ,3.45454545454545,1,6,6,5,7,6,6,2,6,6,4,2,5,6,6,6,5,7,4,3,3,5,3,3,5,3,5,5,4,4,4,4,3,4,4,3,4,10:18:21,2.2,2, ,2,4,3,4,4,5,5,3,5,5,3,3,3,1,1,2,1,22,5.66666666666667,2.63636363636364,3,3,3,2,2,2,3,3,2,3,3,2,2,2,2,3,1,2,2,4,2,2,2,2,2,4,1,2,3,2,2,2,3,2,2.23076923076923,2,2,2,1, ,4,4,5, ,2,2,7,5,1, ,2,7,3,1,8,1,1, ,1, , , , , , , , , , ,6,6,6,6,5,5,5,7,3,1,4,2,4,4,2,3,4,4,4,1,2,3,4,4,4,4,4,3,3,3,3,4,2,3,2,2,2,4,4,3,4,4,3,2,5,4,2,3,2,3,3,4,2,2,3,4,3,3,3,2,2,3,2,3,2,3,3.53846153846154,4,4,4,2,3,4,3,4,4,3,4,5,3,4,35.9,36.4,2,36.15,1,-4,4,1,1.91008175577376,.829282576196568,Oslo
1996,3,3,3,3,3,3,3,3,2,3,3,3,3,2,3,3,3.83333333333333, ,4.77777777777778,2.33333333333333,87,3.11111111111111, ,2.90909090909091,1,3,5,2,7,4,4,3,3,5,2,4,3,1,5,5,5,6,2,2,2,3,3,3,3,3,3,4,3,4,2,3,3,4,3,3,5,9:43:02,2.8,2, ,2,5,5,5,5,5,5,3,5,5,5,5,4,4,3,5,4,17,4.33333333333333,2.63636363636364,4,4,4,3,3,2,1,1,2,2,3,2,2,2,2,2,2,2,3,4,1,4,4,4,4,2,3,5,3,4,4,4,3,5,3.76923076923077,2,2,5,1, ,4,4,4,1,6,3,5,5,1, ,2,8,3,1,1,1,1, ,1, , , , , , , , , , ,5,6,4,3,4,4,4,8,3,2,2,3,3,2,2,2,2,2,3,2,2,2,3,3,4,3,4,4,4,4,4,4,2,2,2,3,2,4,4,2,3,3,2,2,2,2,2,2,2,2,4,2,3,2,4,4,4,3,4,2,4,3,4,3,4,2,3.23076923076923,4,3,4,3,4,2,3,4,3,3,3,4,3,3,36.3,36.7,2,36.5,1,-3,4,1,.398120084927084,.0849416902781012,Oslo
1991,4,5,3,3,4,3,5,2,4,4,3,3,2,2,2,2,4.05555555555556, ,3.66666666666667,2.77777777777778,84,2.94444444444444, ,3.63636363636364,1,3,4,4,5,4,4,4,4,4,3,3,5,4,4,4,4,6,4,3,2,5,3,2,2,3,3,3,3,3,3,3,3,3,3,2,4,10:54:10,2.2,2, ,2,2,4,3,5,5,3,3,4,4,2,4,5,3,3,3,2,23,3.33333333333333,2.81818181818182,4,3,4,4,2,2,2,2,3,2,3,2,4,2,4,2,2,2,3,4,1,3,4,4,3,4,3,3,3,2,3,2,3,3,3.07692307692308,2,2,2,1, ,4,4,4,1,8,6,8,8,1, ,2,5,3,1,1,1,1, ,1, , , , , , , , , , ,5,3,3,3,3,3,3,8,3,2,3,3,3,4,3,2,4,3,3,1,4,3,2,2,4,4,4,4,4,4,4,4,2,2,2,3,3,3,3,2,3,2,4,2,4,4,2,3,2,3,4,5,4,2,3,3,5,5,5,1,3,5,3,4,2,3,3,4,2,3,2,3,3,3,4,3,3,2,4,3,4,36,36.4,2,36.2,1,0,4,1,.63072957274965,-.0868292833953909,Oslo
1972,3,1,5,2,3,2,3,2,1,1,2,1,1,1,2,1,4.77777777777778,0,3.22222222222222,3.11111111111111,53,3.77777777777778,3,2.27272727272727,1,7,6,4,7,7,5,3,6,6,1,7,4,2,2,7,5,6,1,3,3,6,6,3,5,4,4,5,3,2,3,2,4,3,4,5,3,11:24:27,1.2,2,9,2,4,4,4,2,2,3,3,4,3,5,6,4,1,3,3,3,22,2.66666666666667,2.27272727272727,4,4,2,2,2,1,1,1,1,4,3,2,3,2,3,4,2,4,4,4,1,3,2,4,4,2,3,2,3,3,5,2,4,2,3,2,1,4,3,3,2,2,5, ,6,3,6,3,1, ,1, ,3,1,8,1,1, ,1, , , , , , , , , , ,4,2,3,3,2,2,2,7,1,1,4,2,4,5,3,3,3,2,4,1,2,3,4,2,4,5,2,4,3,4,4,2,1,1,1,2,1,4,4,2,4,3,4,3,3,4,2,2,2,2,4,2,2,2,2,4,4,4,4,1,2,5,1,1,3,3,2.76923076923077,2,4,3,3,2,2,2,4,3,3,2,5,2,4,36.8,36.7,2,36.75,1,-2,4,1,1.38671040817299,.77202558497207,Oslo
1995,4,4,3,4,2,4,4,3,4,4,4,1,1,2,5,2,4.94444444444444,1,4.55555555555556,4,89,3.83333333333333, ,3.63636363636364,1,6,6,6,6,6,7,5,6,6,5,7,2,5,1,2,5,6,2,3,3,6,6,6,4,6,4,3,2,2,3,2,5,4,4,2,4,10:53:21,2.2,2,2,1,5,5,5,5,4,4,4,5,4,4,5,5,1,3,1,3,12,2.33333333333333,3.54545454545455,5,5,5,5,4,1,1,2,4,3,4,4,4,4,4,4,4,4,4,4,1,2,2,4,5,5,5,5,4,3,3,5,4,4,3.92307692307692,2,2,2,1, ,4,4,4,1,2,2,3,3,1, ,2,4,1, , ,1,1, ,1, , , , , , , , , , ,3,2,2,3,2,2,2,7,1,2,4,5,2,2,4,3,3,5,5,1,2,1,4,5,2,4,4,4,3,2,4,3,2,2,1,2,5,5,4,4,2,2,1,2,4,3,1,1,5,4,2,4,2,4,3,4,3,3,4,4,4,4,4,2,1,3,3.46153846153846,5,3,5,4,4,3,3,3,3,3,2,5,3,4,36.8,36.9,2,36.85,1,0,4,1,1.56116752403992,.829282576196568,Oslo
1994,3,3,3,3,3,3,4,3,2,3,1,2,3,2,3,3,2.44444444444444,0,4.55555555555556,3.33333333333333,78,1.94444444444444, ,2.81818181818182,1,2,2,1,2,2,2,2,4,1,1,4,1,2,2,4,4,6,2,1,2,5,2,3,2,2,2,1,2,1,2,2,1,3,2,1,1,19:56:17,2.6,2,1,1,5,5,5,5,5,4,2,5,5,3,4,7,5,5,4,4,21,4.5,3.63636363636364,4,4,4,4,4,4,3,3,2,4,4,4,4,1,4,3,2,3,4,5,1,2,3,5,4,2,2,3,4,3,5,4,4,2,3.30769230769231,2,2,2,1, ,4,4,4,2,5,3,6,4,2,2,2,5,3,1,3,1,1, ,1, , , , , , , , , , ,6,5,4,4,4,4,3,9,2,1,4,3,4,4,3,2,5,4,3,2,4,3,4,1,5,5,4,4,3,3,4,4,3,3,2,3,3,2,4,4,5,3,1,3,5,2,1,2,3,3,5,2,2,2,4,4,3,3,4,2,3,4,4,3,2,4,2.76923076923077,2,3,3,3,3,3,2,3,3,3,4,4,2,2,35.5,35.4,2,35.45,1,-14,4,1,-1.05568921396395,-1.11745512543634,Oslo
1996,3,5,5,4,3,4,2,5,4,5,1,5,1,2,1,1,4.11111111111111,28,3,4.11111111111111,83,3.94444444444444, ,3.72727272727273,1,5,4,5,5,5,6,2,5,4,1,4,5,4,3,7,1,7,1,3,5,5,5,5,5,3,4,4,5,2,3,3,4,3,4,4,4,10:39:56,2,2,0,1,4,2,4,4,3,2,1,4,3,4,6,3,1,3,1,4,15,4.83333333333333,2.90909090909091,3,3,5,3,2,2,2,2,2,3,5,5,3,2,4,5,5,4,5,4,2,2,3,5,4,3,2,4,4,3,4,4,5,4,3.61538461538462,2,2,2,1, ,4,4,5, ,4,2,7,7,1, ,2,8,1, , ,1,1, ,1, , , , , , , , , , ,6,5,5,5,4,4,4,6,3,1,4,4,2,4,2,2,4,5,4,1,3,4,3,5,4,5,5,4,2,3,3,2,2,2,2,1,4,4,4,2,3,3,1,2,4,4,1,2,4,3,4,3,4,2,4,4,5,4,4,3,4,4,2,3,2,5,3.46153846153846,4,4,4,3,4,4,4,4,3,2,3,5,2,4,36.3,36.4,2,36.35,1,-7,4,1,.688881944705291,.943796558645563,Oslo
1993,1,1,1,2,1,1,1,3,1,1,1,2,1,2,1,2,4.22222222222222,0,4.66666666666667,3.77777777777778,82,2.44444444444444, ,1.27272727272727,1,6,5,5,5,6,5,3,2,3,3,5,6,1,5,1,6,4,5,2,2,4,3,2,2,2,3,2,2,3,2,2,3,2,3,1,4,13:17:18,1.6,2,1, ,5,4,3,5,5,5,5,5,5,4,6,6,5,5,5,5,17,4.5,3.81818181818182,5,4,4,4,4,4,3,4,3,3,4,4,3,2,5,4,4,4,3,5,1,4,3,5,4,4,4,4,5,4,4,5,4,4,4.15384615384615,2,2,1,1, ,4,2,4,1,1, ,4,4,1, ,2,5,3,4,4,1,1, ,1, , , , , , , , , , ,4,5,4,4,5,5,4,7,1,2,4,2,4,4,4,2,2,4,4,1,2,2,2,2,4,4,2,4,4,4,4,2,2,2,2,2,3,4,4,3,4,4,2,5,4,4,1,2,2,3,2,4,3,2,4,2,2,4,4,2,2,4,2,2,2,4,2.30769230769231,2,3,3,2,2,3,2,2,2,2,3,4,2,2,36.7,36.7,2,36.7,1,-22,4,1,.805186688616575,-.602142204415868,Oslo
1981,2,1,1,2,2,1,3,2,1,2,1,4,2,1,3,2,3.11111111111111,0,4.33333333333333,1.33333333333333,70,1.83333333333333, ,1.63636363636364,1,2,5,5,6,6,1,5,1,5,2,3,1,2,1,2,6,2,1,1,2,1,1,1,1,1,1,1,2,2,2,2,1,4,3,2,5,13:28:09,2.4,2,20,5,4,5,4,5,4,4,4,5,4,4,5,6,4,5,7,4,41,6.6,1.72727272727273,1,1,3,2,3,1,1,1,2,1,3,1,2,1,3,1,1,1,1,1,1,4,5,4,4,4,3,3,3,4,5,5,4,4,4,2,2,1,1, ,4,4,4,1,8,4,4,4,2,1,2,8,6,4,8,3,1, ,2,fitness, , , , ,3, , , , ,5,7,7,7,7,5,5,9,2,1,5,2,5,4,2,2,4,3,2,2,2,4,3,3,4,5,4,5,5,4,5,4,1,1,1,4,2,4,4,2,3,4,1,3,5,3,2,2,3,2,4,2,2,1,4,4,5,5,3,2,4,4,3,3,3,2,2.25,3,3,3,4,4,4,4,3,3,4,4,4,5,2,36.4,36.3,1,36.35,1,-1,9,1,.0129977350176758,-1.29695254205579,Poland
1995,2,2,2,2,2,3,4,2,2,3,4,3,2,2,2,2,1.83333333333333,0,4.77777777777778,2.55555555555556,78,1.72222222222222, ,2.54545454545455,1,1,1,1,1,1,5,1,1,1,1,7,1,1,1,1,4,2,2,1,1,4,1,1,1,1,2,1,1,1,2,1,1,4,4,2,2,11:37:40,2.2,2,22,5,5,5,5,5,5,4,4,5,5,4,4,6,3,4,4,2,22,3.4,3.27272727272727,4,4,4,4,4,2,2,2,2,4,4,4,4,3,2,2,1,3,1,3,1,4,4,4,3,4,4,4,2,4,4,3,4,3,3.61538461538462,2,2,1,1, ,4,2,3,1,6,4,2,2,2,1,2,6,2,1,1,1,1, ,1, , , , , , , , , , ,2,4,4,4,3,2,2,9,2,4,4,2,4,3,3,3,3,4,2,2,2,4,4,4,4,4,4,4,3,2,4,3,1,1,1,2,2,2,2,2,2,2,1,3,4,3,3,3,4,4,2,4,4,4,2,4,4,4,3,2,3,4,4,3,2,4,2,3,2,3,5,5,5,5,2,4,4,3,4,4,2,36.3,35.6,2,35.95,1,2,9,1,-1.32230290913144,-1.41269789046436,Poland
1978,1,1,1,1,2,2,1,2,2,2,2,3,2,3,3,4,2,10,4,1.44444444444444,81,3.44444444444444, ,1.54545454545455,1,2,1,1,1,1,2,1,2,6,1,7,1,2,1,1,3,2,1,2,2,6,2,2,4,4,3,4,2,2,6,2,4,6,7,2,2,11:15:02,3,2,0,5,5,5,4,5,5,3,3,3,3,5,4,4,1,2,1,1,53,1.2,1.45454545454545,2,2,1,2,2,1,1,1,2,1,1,1,2,1,1,3,1,1,1,2,1,4,3,4,4,4,3,4,3,2,4,4,4,4,3.61538461538462,2,2,1,3,3,2,2,4,4,5,2,8,8,2,1,2,8,6,8,7,1,2,8,1, , , , , , , , , , ,1,1,1,1,1,2,1,11,4,1,2,2,4,5,1,1,4,2,2,2,1,4,3,4,4,2,1,5,4,4,4,3,2,3,2,4,2,2,4,1,4,4,2,3,5,3,2,2,2,4,4,2,2,2,1,4,3,3,4,4,2,4,2,2,5,1,2,2,3,3,4,5,4,5,2,4,3,2,3,5,2,36.3,36.9,2,36.6,1,1,9,1,-1.14813325989459,.38135500986855,Poland
1978,2,2,1,2,1,2,3,2,2,1,2,3,2,1,3,1,2.11111111111111,0,4.33333333333333,1.66666666666667,83,2.11111111111111, ,1.81818181818182,1,1,1,1,2,4,1,1,2,1,1,7,3,1,1,2,5,2,2,2,1,5,1,1,1,2,1,2,1,1,3,2,1,6,4,2,2,10:37:59,2,2,14,5,4,5,4,5,5,5,3,4,4,4,5,5,2,2,5,5,36,3,2,3,2,3,3,3,1,1,1,2,1,2,2,2,1,3,3,1,1,1,1,1,4,3,5,4,4,2,4,3,4,5,4,4,3,3.76923076923077,1,2,1,1, ,3,3,3,3,3,1,6,3,1, ,2,8,3,1,8,3,1, ,2,sport, , , , ,5, , , , ,6,3,2,3,4,3,3,8,2,2,3,3,4,3,3,4,2,4,3,4,5,5,3,2,5,4,4,4,3,4,4,4,1,2,2,3,2,3,4,3,3,4,2,1,3,3,2,2,3,2,1,2,2,2,3,2,4,3,4,3,3,5,4,3,3,4,1.58333333333333,1,3,3,4,5,4,4,2,4,4,3,3,4,1,36.5,36.5,1,36.5,1,1,9,1,-1.03202016040337,-1.00758917103435,Poland
1996,2,2,2,2,3,4,2,3,1,1,1,1,2,1,3,1,2,0,3.55555555555556,2.66666666666667,85,5.38888888888889,6,2.09090909090909,1,1,2,2,1,3,2,3,1,2,3,6,1,1,2,1,1,2,2,2,6,6,5,2,6,7,4,5,7,5,6,7,7,7,7,2,6,10:13:42,1.6,2,0,5,4,4,3,4,3,4,2,4,4,4,4,4,3,2,2,4,24,1.2,2.09090909090909,2,2,2,2,2,3,2,2,2,2,2,5,4,2,2,3,2,1,2,3,1,5,5,4,5,5,3,5,5,5,5,5,5,1,4.46153846153846,2,1,2,1, ,4,2,5,1,6,6,3,3,1, ,1, ,2,1,1,1,1, ,1, , , , , , , , , , ,1,2,1,1,1,1,2,7,1,5,2,3,5,1,3,4,4,2,2,2,3,4,4,3,4,3,3,3,4,4,2,4,4,3,5,4,3,2,2,2,1,1,2,2,4,5,5,3,3,2,4,3,2,5,3,2,2,3,3,3,4,3,2,3,4,1,1.55555555555556,1,2,2,5,4,5,5,2,4,5,2,4,4,2,35.6,35.4,2,35.5,1,1,9,1,-1.14813325989459,2.40689860701861,Poland
1984,2,2,1,2,1,2,4,1,3,1,1,3,2,1,3,1,2.33333333333333,14,4,2.66666666666667,86,2.33333333333333, ,1.81818181818182,1,2,1,1,2,2,2,1,2,1,2,7,5,2,2,2,6,1,1,2,3,2,2,2,1,1,2,2,3,2,5,2,1,3,2,2,5,10:08:58,2,2,38,5,5,5,4,5,5,3,2,4,3,4,6,6,1,6,3,3,31,3.4,2.45454545454545,4,4,4,2,2,1,1,1,4,1,3,2,3,4,4,2,1,4,2,2,1,2,4,4,5,4,4,4,2,2,4,3,4,4,3.53846153846154,2,2,1,3,3,4,4,3,1,3,3,5,3,1, ,2,6,6,1,1,1,1, ,2,angielski,przedszkole, , , ,2,3, , , ,3,4,3,3,4,3,2,9,2,1,1,3,5,3,1,1,5,4,1,1,1,4,4,3,2,4,3,3,2,2,4,2,2,4,2,4,2,2,2,1,1,1,1,3,4,3,1,2,2,2,4,4,1,1,3,2,4,3,3,2,2,3,4,3,5,3,1.75,2,3,3,3,4,5,4,2,4,4,2,4,4,1,36.3,36.3,1,36.3,1,2,9,1,-.799793961420913,-.7760984742172,Poland
1983,1,2,1,1,4,2,2,1,1,1,1,2,2,1,3,3,2.5,0,4.33333333333333,2.33333333333333,86,3.05555555555556, ,1.54545454545455,1,3,2,2,2,3,2,3,2,3,2,6,2,2,2,2,3,2,2,2,3,2,3,2,5,2,3,2,3,3,3,3,2,6,6,2,3,9:54:24,2.2,2,32,5,5,4,4,5,5,5,3,4,4,3,3,2,3,3,1,2,91,2,1.72727272727273,4,1,2,2,2,1,1,1,2,2,1,2,2,2,5,2,1,2,1,4,2,5,3,5,5,5,4,3,3,5,5,5,5,3,4.30769230769231,1,2,2,1, ,4,4,5,1,6,5,5,4,2,8,2,8,6,8,8,1,2,8,2,studenci,nauczyciele,uczniowie,oaza,ruch charyzmatyczny,20,24,180,21,18,1,3,1,2,2,2,1, , ,2,4,2,4,4,3,2,4,4,2,2,3,4,2,3,4,4,4,3,4,4,3,4,3,2,3,2,2,2,4,2,4,2,3,2,4,4,2,2,4,2,4,2,3,2,4,2,2,4,2,2,2,4,2,4,4,2,1.76923076923077,2,3,3,4,4,4,4,3,4,4,3,3,4,2,37,36.2,2,36.6,1,3,9,1,-.625624312184073,-.0237537095614629,Poland
1982,1,1,1,1,1,1,1,1,1,1,1,2,1,1,1,2,1.33333333333333,0,5,2,82,2, ,1,1,1,1,1,1,1,1,1,1,1,1,7,1,1,1,1,1,1,1,1,1,7,1,1,1,1,1,1,1,1,1,1,1,7,7,1,1,9:54:03,1.4,2,60,5,5,5,5,5,5,5,5,5,5,2,3,3,2,2,2,2,44,6.2,2.18181818181818,4,2,4,2,4,1,2,1,1,1,2,4,2,1,1,2,2,2,2,2,1,3,5,5,4,5,2,4,2,5,5,5,5,1,3.92307692307692,2,2,1,1, ,1,1,1,1,8,4,5,6,2,1,2,8,6,1,4,2,1, ,2,przyjaciele,znajomi,praca,rodzina,inne,4,2,3,4,2,7,7,6,6,6,6,6,10,3,1,4,2,5,2,1,2,2,1,1,1,3,4,4,4,4,4,4,5,5,2,4,5,1,1,1,4,2,3,4,2,1,2,1,4,4,3,1,3,2,3,4,2,2,1,3,4,4,3,3,2,3,3,3,3,3,3,2,2,4,3,5,4,4,4,2,4,5,3,3,5,1,36.5,36.4,1,36.45,1,0,9,1,-1.84481185684196,-1.12333451944292,Poland
1976,2,1,1,1,1,3,3,1,3,1,2,4,1,1,3,2,3,0,4,2.66666666666667,72,3.11111111111111, ,1.72727272727273,1,3,4,1,4,1,6,5,2,4,1,6,1,4,3,1,6,1,1,3,2,5,2,2,2,2,2,4,2,4,2,4,1,7,6,4,2,9:32:15,2.2,2,5,5,4,4,4,4,4,4,4,4,4,4,3,6,6,6,6,1,36,4,3.09090909090909,4,3,4,4,4,1,3,2,4,1,4,1,3,1,3,4,4,4,1,3,1,4,4,4,5,3,4,4,3,5,3,4,4,2,3.76923076923077,2,2,4,1, ,4,2,5,1,4,4,6,6,2,1,2,8,6,4,8,1,1, ,1, , , , , , , , , , ,4,5,5,3,5,2,3,9,3,1,3,4,4,4,3,3,3,4,4,1,4,4,3,4,5,5,4,5,4,3,5,3,1,1,2,3,3,3,3,3,1,3,1,3,4,1,1,1,2,3,5,3,3,1,3,4,4,4,4,1,4,4,3,3,3,1,2.16666666666667,2,3,3,4,5,4,3,2,4,4,4,3,4,3,36.6,36.8,2,36.7,1,2,9,1,-.103115364473551,.0341189646428248,Poland
1985,2,2,2,2,2,2,1,2,2,2,2,1,2,1,3,1,3.16666666666667,0,4.77777777777778,3.22222222222222,70,2.33333333333333, ,1.90909090909091,1,2,2,2,2,6,5,2,5,2,2,6,2,2,2,2,5,6,2,2,1,6,2,2,2,2,2,2,1,1,1,1,2,6,6,2,1,18:33:19,1.6,2,8,4,5,5,5,5,5,5,5,5,3,4,5,5,2,4,4,4,41,2.6,3.45454545454545,4,4,4,4,4,2,2,2,4,4,4,4,4,3,4,4,2,2,2,4,1,3,4,3,3,4,2,2,2,3,4,2,4,3,3,1,2,1,3,3,4,4,4,2,8,3,3,2,1, ,2,8,6,8,8,2,1, ,1, , , , , , , , , , ,3,2,2,3,4,2,2,9,2,3,2,3,4,2,2,4,2,2,2,2,2,4,3,2,3,4,2,4,4,4,4,4,2,2,2,4,4,3,3,4,4,3,1,1,4,2,2,2,4,4,4,4,2,3,4,4,2,3,1,4,2,2,4,2,2,2,2.76923076923077,2,5,4,3,4,4,4,3,3,4,5,4,4,3,36.2,36.1,2,36.15,1,1,9,1,.0710542847632891,-.7760984742172,Poland
1980,2,3,2,3,2,2,3,2,2,2,2,3,2,2,3,2,2.61111111111111,0,3.88888888888889,3.22222222222222,70,3.33333333333333, ,2.27272727272727,1,2,2,2,2,2,4,2,2,2,4,6,2,2,2,2,5,2,2,2,2,6,2,2,4,2,2,2,3,2,6,3,5,6,6,2,3,16:28:32,2.4,2,10,4,4,4,3,4,4,4,4,4,4,4,5,6,4,4,4,2,29,3.4,3,4,4,3,2,3,2,2,2,4,3,4,4,4,3,4,2,3,3,2,4,1,3,2,2,4,3,1,2,1,3,5,2,3,3,2.61538461538462,2,2,1,2,2,4,4,2,2,3,2,2,2,2,1,2,4,6,4,2,1,1, ,1, , , , , , , , , , ,5,4,4,3,3,3,4,10,1,1,4,2,5,2,2,3,4,4,3,1,2,3,3,3,3,4,3,3,2,3,4,2,2,2,2,4,2,4,4,2,2,4,3,2,4,2,2,2,3,2,2,3,3,3,3,2,4,3,4,4,4,4,4,4,2,3,3,4,3,4,4,3,4,4,4,4,3,3,4,3,4,36.6,36.9,1,36.75,1,4,9,1,-.509511212692846,.265609661459975,Poland
1994,1,1,2,2,2,2,2,2,2,2,4,3,1,1,3,2,2.27777777777778,0,2.66666666666667,2,78,4.27777777777778,10,2,1,2,2,1,2,1,5,2,1,2,2,6,1,2,1,2,6,2,1,5,4,6,2,5,2,5,4,4,2,2,5,4,5,6,6,6,4,15:31:12,2,2,29,4,3,3,4,3,2,2,2,2,3,5,5,4,2,2,4,3,33,1.8,1.63636363636364,2,2,2,2,2,1,1,1,1,2,2,4,1,1,1,3,3,1,1,3,1,3,4,2,5,5,4,4,4,3,5,5,2,5,3.92307692307692,2,1,2,1, ,3,3,5,1,3,3,5,7,1, ,2,6,3,1,8,1,1, ,1, , , , , , , , , , ,3,2,2,1,2,2,2,8,3,5,3,1,5,5,3,2,2,4,2,1,1,3,4,4,4,4,3,2,2,3,3,2,2,2,3,4,2,3,4,1,4,5,2,4,3,2,4,2,2,2,5,1,2,2,2,4,4,2,4,4,2,3,4,2,2,1,2,2,3,3,4,4,4,4,2,3,4,4,4,4,2,36.7,36.9,2,36.8,1,8,9,1,-.857850511166527,1.24944512293286,Poland
1991,2,3,2,3,4,3,3,2,2,2,2,3,3,2,2,2,2.94444444444444,0,5,2.55555555555556,81,1.77777777777778, ,2.54545454545455,1,2,2,2,5,5,5,2,2,2,2,6,2,2,2,2,4,5,1,2,2,2,1,2,1,1,2,1,2,2,2,2,1,3,2,2,2,13:21:09,2.4,2,12,4,5,5,5,5,5,5,5,5,5,5,7,7,7,6,5,4,32,3.8,3.18181818181818,4,4,4,4,4,2,2,2,2,3,4,4,4,2,3,2,2,2,2,2,1,3,3,4,4,3,2,2,3,2,4,4,4,3,3.15384615384615,2,2,1,1, ,4,4,3,1,8,6,8,5,2,4,2,4,2,1,1,1,1, ,1, , , , , , , , , , ,3,4,4,3,4,4,4,9,2,3,4,4,4,2,2,4,2,4,3,2,3,4,3,3,4,5,4,5,5,4,4,4,1,1,1,2,4,4,2,4,2,4,2,2,4,3,2,3,3,2,4,4,3,3,4,4,4,4,4,2,4,4,4,3,3,4,2.69230769230769,2,3,5,3,3,4,4,4,4,3,3,4,4,3,36.3,36.1,2,36.2,1,7,9,1,-.161171914219165,-1.35482521626007,Poland
1976,2,2,2,2,2,3,2,2,2,2,2,3,2,2,2,2,2.88888888888889,17,4.88888888888889,2.11111111111111,77,2.61111111111111, ,2.09090909090909,1,2,2,2,2,4,4,2,2,2,4,6,4,2,2,2,4,4,2,2,2,4,2,2,2,2,2,2,2,4,2,4,2,4,4,2,3,12:22:56,2.2,2,11,4,5,5,4,5,5,5,5,5,5,3,4,4,4,4,4,4,45,5,2.63636363636364,4,2,4,2,4,2,2,2,2,2,3,2,2,2,2,2,2,2,2,3,1,4,4,4,5,4,4,4,4,4,4,4,4,4,4.07692307692308,2,2,1,3,3,4,4,4,4,7,4,5,5,2,1,2,8,3,3,3,2,1, ,2,handlowa,sportowa, , , ,3,4, , , ,5,5,5,5,5,5,5,10,3,3,3,3,4,2,2,2,2,3,3,2,3,4,3,3,4,4,4,3,4,4,3,3,3,3,4,3,3,3,3,3,2,2,2,2,4,2,4,4,2,2,4,2,2,3,3,2,2,3,3,3,3,3,3,2,4,2,1.83333333333333,3,2,3,4,4,4,4,2,4,4,3,3,5,3,36.4,36,2,36.2,1, ,9,1,-.219228463964778,-.486735103195762,Poland
1985,3,2,4,2,2,3,2,2,1,2,1,3,2,1,2,2,2.33333333333333,1,4.88888888888889,3.55555555555556,70,1.83333333333333, ,2.18181818181818,1,2,1,1,2,2,3,1,1,1,2,7,2,2,1,2,6,5,1,1,1,2,1,1,2,1,1,2,2,2,6,2,2,2,2,1,2,12:05:17,2,2,9,4,5,5,5,5,5,5,4,5,5,4,7,5,3,3,3,2,28,3.8,3.81818181818182,5,4,5,4,5,1,2,4,4,3,5,4,4,4,4,4,2,2,4,4,1,4,4,4,4,4,2,1,3,3,3,4,4,3,3.30769230769231,2,2,1,2,2,2,2,4,4,4,2,7,4,1, ,2,8,6,1,2,2,1, ,1, , , , , , , , , , ,4,4,3,4,5,3,3,9,2,1,4,2,4,4,2,2,4,4,2,2,3,4,4,4,4,4,3,4,2,3,4,2,1,4,2,2,3,4,4,2,4,2,2,2,4,2,1,2,2,2,4,2,2,4,4,2,5,4,2,2,4,5,4,2,4,2,2,2,3,3,4,4,4,4,3,4,3,3,4,4,3,36.61,36.28,2,36.445,1,4,9,1,-.799793961420913,-1.29695254205579,Poland
1996,4,3,4,4,2,4,4,3,4,4,4,2,3,1,3,2,2.72222222222222,4,3.88888888888889,1.44444444444444,78,2.11111111111111, ,3.63636363636364,1,6,5,1,1,4,5,1,1,4,1,4,1,1,1,1,5,6,1,1,3,5,1,2,2,1,3,1,1,1,1,2,1,5,4,2,2,12:04:38,2.2,2,6,4,4,4,4,4,4,4,3,4,4,3,4,2,3,4,4,1,30,5.2,1.09090909090909,1,2,1,1,1,1,1,1,1,1,1,1,1,1,1,1,4,1,1,2,1,4,4,4,5,4,2,2,3,3,4,4,4,4,3.61538461538462,2,2,1,1, ,4,4,4,2,6,3,5,5,2,1,2,8,2,1,1,2,2,2,1, , , , , , , , , , ,7,6,6,5,4,5,4,10,3,3,4,4,4,2,2,2,4,4,4,1,2,4,4,4,3,5,4,5,3,2,4,3,1,2,1,2,4,4,3,4,3,1,1,1,4,4,3,2,2,4,3,4,2,2,3,4,3,3,3,2,3,4,4,2,2,4,2.66666666666667,2,3,4,5,2,4,4,3,3,3,3,4,4,3,36.5,36.8,2,36.65,1,-3,9,1,-.393398113201619,-1.00758917103435,Poland
1993,4,2,2,2,2,2,4,3,2,2,2,2,1,2,2,1,2.38888888888889,2,4.33333333333333,2.44444444444444,70,3.55555555555556, ,2.45454545454545,1,2,2,2,2,2,1,2,2,2,2,6,2,2,2,2,6,2,2,5,3,6,3,3,5,3,2,2,3,4,3,3,3,6,6,1,3,11:49:26,1.6,2,1,4,2,5,5,5,4,5,3,5,5,3,4,7,4,4,4,1,37,4.2,3.27272727272727,4,4,4,4,4,2,2,2,3,3,4,2,2,2,3,2,4,2,3,2,1,3,4,5,5,5,2,3,5,5,2,2,3,2,3.53846153846154,2,2,2,1, ,4,2,5,1,8,1,5,4,2,1,2,3,6,1,8,1,1, ,2,Studenci z roku,Członkowie klubu sportowego, , , ,4,5, , , ,4,3,5,4,6,3,3,9,1,2,5,4,4,2,3,2,2,5,3,4,2,3,2,4,4,5,5,4,4,4,4,4,2,2,2,2,4,3,4,3,4,5,3,3,4,4,2,2,4,2,3,3,3,2,4,4,5,5,4,4,3,4,5,3,2,5,2.33333333333333,2,3,3,4,5,5,4,3,5,2,2,5,5,2,36.6,36.6,1,36.6,1,1,9,1,-.7417374116753,.497100358277124,Poland
1985,3,2,2,2,3,2,1,2,3,1,2,2,2,1,4,2,3.5, ,4.55555555555556,1.77777777777778,83,3.77777777777778, ,2.09090909090909,1,2,3,4,5,3,5,4,5,4,2,5,4,1,2,2,4,4,4,4,1,6,2,4,3,4,4,3,2,3,6,2,4,6,6,6,2,11:44:14,2.2,2,8,4,5,5,5,5,5,4,4,4,4,5,7,5,5,5,3,2,31,3.2,2.36363636363636,4,4,4,1,4,1,1,1,1,2,3,2,1,1,2,1,2,3,2,2,1,5,5,4,4,5,2,4,4,3,5,5,5,3,4.15384615384615,2,2,1,1, ,3,3,4,2,8,4,5,5,1, ,2,4,3,1,1,3,1, ,2,klub filmowy, , , , ,3, , , , ,6,4,2,2,4,4,4,8,2,2,4,2,4,3,4,2,2,4,3,2,3,4,4,4,4,4,4,4,4,2,4,4,2,2,1,4,2,4,3,2,4,4,1,3,3,2,2,2,4,4,4,4,4,3,4,4,4,4,4,3,4,4,4,4,3,4,2.66666666666667,4,3,3,4,4,4,3,3,3,3,3,4,5,3,36.5,36.3,1,36.4,1,1,9,1,.41939358323697,.728591055094274,Poland
1980,3,2,2,2,2,2,3,2,2,2,2,3,1,1,2,2,2.88888888888889,3,3.66666666666667,3.11111111111111,72,3.16666666666667, ,2.18181818181818,1,2,2,2,2,5,5,4,3,2,2,6,2,2,2,2,5,1,3,1,2,7,2,2,2,2,2,2,2,2,6,5,2,7,7,2,2,11:31:12,1.8,2,15,4,4,4,4,4,3,3,4,4,3,3,3,5,3,4,4,5,38,3.8,3.27272727272727,3,4,4,4,4,1,3,3,4,2,4,4,3,3,4,2,2,4,2,4,2,4,2,5,3,4,3,4,3,3,5,4,5,4,3.76923076923077,2,2,2,1, ,4,4,5,1,6,5,6,4,1, ,2,5,6,2,8,1,1, ,2,grupa dot.rodzicielstwa zastępczego, , , , ,4, , , , ,3,4,4,3,5,3,3,8,2,2,5,3,4,1,3,4,1,5,3,2,3,4,4,3,4,4,4,4,4,3,4,3,2,2,2,3,3,5,4,3,1,4,2,1,3,3,3,2,3,2,5,3,2,2,3,2,3,3,2,3,3,4,2,3,3,2,2.16666666666667,3,3,3,4,4,4,4,3,4,3,3,4,5,3,36.7,36.7,1,36.7,1,2,9,1,-.219228463964778,.0919916388471121,Poland
1991,3,3,2,4,4,2,4,2,4,3,3,3,4,1,2,2,4.22222222222222,6,3.66666666666667,2.44444444444444,72,2.5, ,3.09090909090909,1,5,5,5,5,6,6,2,3,5,4,3,2,2,3,5,6,7,2,3,2,2,1,4,1,2,3,3,2,2,3,3,2,3,3,3,3,11:29:45,2.4,2,13,4,4,4,4,5,5,3,2,3,3,5,8,7,7,6,7,7,41,5.6,2.72727272727273,4,3,3,4,2,2,2,2,2,2,4,3,4,2,4,2,2,2,1,2,2,2,1,4,4,3,1,1,2,2,3,3,3,2,2.38461538461538,2,2,2,1, ,4,2,5,1,4,3,6,4,1, ,2,8,2,1,1,1,2,4,2,studenci i wykładowcy,zespół wokalny,kurs niemieckiego, , ,10,5,3, , ,5,5,5,5,7,6,6,9,2,2,5,4,5,2,2,3,2,5,3,2,3,5,4,4,4,4,4,4,4,4,4,4,2,3,2,2,4,4,3,3,2,4,1,2,3,2,3,4,4,2,3,4,2,3,4,4,4,3,4,4,4,4,3,3,3,2,3.23076923076923,3,3,4,3,3,3,3,3,3,2,4,4,4,3,36.99,36.87,2,36.93,1,0,9,1,1.17412872992995,-.602480451604337,Poland
1994,4,4,4,4,5,4,5,4,5,4,5,2,2,4,4,2,5.61111111111111,42,4.22222222222222,4,70,4.77777777777778,4,4.36363636363636,1,7,7,6,7,6,6,7,7,6,3,1,5,4,5,7,6,6,5,7,6,2,1,6,5,4,5,6,3,3,6,2,7,6,6,6,5,11:28:07,2.8,2,36,4,5,4,5,5,5,4,2,4,4,4,5,6,5,5,8,7,40,5.4,4,5,4,5,4,4,3,4,4,2,4,5,4,4,5,4,4,2,4,4,5,1,1,3,2,5,5,1,5,1,4,5,2,4,3,3.15384615384615,2,1,2,1, ,4,4,5,1,3,3,5,5,2,3,2,6,2,1,1,1,2,8,2,zespol muzyczny, , , , ,4, , , , ,7,5,7,5,6,4,7,10,4,2,4,4,4,4,2,2,4,5,4,1,2,4,5,5,2,5,5,4,5,2,4,5,2,1,2,1,2,4,4,4,2,2,2,4,5,5,2,2,4,5,4,4,4,2,4,4,4,4,5,2,4,4,3,4,1,3,3.25,4,3,3,3,3,4,2,3,3,3,5,5,5,2,36.5,36.6,2,36.55,1,-3,9,1,2.62554247357028,1.77029919077145,Poland
1996,4,4,1,5,5,4,4,2,5,4,5,3,4,2,2,2,3.38888888888889,10,2.77777777777778,1.88888888888889,85,4.27777777777778,10,3.90909090909091,1,2,2,5,2,6,1,2,3,4,3,5,5,2,2,1,7,7,2,5,6,5,1,5,1,1,6,3,6,2,6,6,2,6,6,5,5,11:26:18,2.6,2,60,4,2,3,4,3,3,2,2,4,2,5,7,7,6,6,5,4,23,4.6,2.09090909090909,2,2,2,2,2,2,2,2,3,2,2,2,2,2,2,2,1,2,2,2,1,2,4,4,5,3,4,5,4,2,4,4,2,1,3.38461538461538,2,1,1,1, ,4,4,3,3,3,2,3,2,1, ,2,8,2,1,1,1,1, ,1, , , , , , , , , , ,6,4,3,3,7,6,6,8,2,1,4,3,4,5,2,1,4,5,4,2,4,5,2,3,5,5,5,4,2,4,3,2,1,5,3,1,4,4,3,2,4,2,1,1,4,2,1,2,3,1,3,4,4,1,4,4,4,4,2,4,3,4,4,2,5,4,3.69230769230769,3,4,5,4,4,3,3,4,2,3,5,4,3,4,37,36.6,2,36.8,1,3,9,1,.303280483745743,1.24944512293286,Poland
1992,4,4,1,3,2,1,3,2,4,2,3,3,3,1,3,2,2.33333333333333,14,4.22222222222222,3.33333333333333,67,3.11111111111111, ,2.63636363636364,1,2,2,1,2,2,2,1,2,1,1,6,3,2,2,1,6,5,1,5,2,4,2,5,1,4,2,2,4,2,2,3,3,6,6,2,1,11:26:17,2.4,2,30,4,5,4,5,5,5,3,3,4,4,3,3,3,2,2,2,3,22,3.2,3.63636363636364,4,4,4,4,3,3,4,4,2,4,4,4,3,3,5,2,3,4,3,3,1,2,1,4,3,2,2,1,2,2,3,4,2,2,2.30769230769231,2,2,1,1, ,4,2,4,1,3,2,4,4,2,1,2,5,2,1,1,1,1, ,1, , , , , , , , , , ,3,2,2,4,3,5,5,9,2,1,3,5,4,3,2,2,3,4,3,1,2,4,2,3,4,5,2,5,5,3,3,3,1,1,1,4,2,4,4,2,3,2,2,4,4,3,4,4,2,3,2,3,2,1,2,4,4,4,3,4,4,4,3,3,3,4,3.38461538461538,3,4,3,4,3,3,2,4,3,3,4,4,3,3,36.6,36.7,2,36.65,1, ,9,1,-.799793961420913,.0341189646428248,Poland
1994,4,4,4,4,3,3,4,4,2,3,4,3,2,2,3,2,4.38888888888889,6,4,3.77777777777778,48,4.05555555555556, ,3.54545454545455,1,6,5,5,5,7,5,4,4,5,3,2,2,6,2,5,6,5,2,6,3,3,2,5,2,2,5,5,5,2,7,7,2,4,3,5,5,11:15:07,2.4,2,27,4,5,4,3,5,4,4,3,4,4,5,8,4,4,4,4,1,25,5,3.63636363636364,4,4,4,4,4,2,4,4,4,2,4,4,4,4,4,4,4,4,2,4,2,4,2,3,3,4,1,3,2,3,4,1,3,3,2.76923076923077,2,2,2,1, ,1,4,5,1,3,5,5,3,1, ,2,8,2,1,1,1,1, ,1, , , , , , , , , , ,7,3,5,3,7,7,7,8,2,4,4,2,5,3,3,2,4,4,3,3,3,4,4,5,5,5,5,5,4,2,5,4,5,4,4,3,4,2,2,2,4,4,4,4,2,2,4,2,4,4,4,3,2,2,2,4,4,3,4,5,4,4,4,4,1,4,3.92307692307692,5,4,5,4,3,4,1,3,2,3,5,4,3,4,36.5,36.7,2,36.6,1,8,9,1,1.34829837916679,1.01795442611571,Poland
1994,1,2,1,2,1,2,2,2,2,2,1,1,1,2,4,2,2.5,26,3.88888888888889,2.33333333333333,57,4.33333333333333, ,1.63636363636364,1,2,1,2,2,4,2,2,2,4,2,6,2,2,1,2,6,2,1,5,3,6,2,5,3,5,3,6,3,2,6,5,5,6,7,4,2,11:11:23,2,2,42,4,4,4,4,5,4,4,2,4,4,3,2,2,1,1,3,2,19,1.2,2.36363636363636,2,4,4,2,2,1,2,2,4,1,2,2,4,2,4,1,2,2,2,2,2,2,4,4,2,4,2,2,2,4,4,2,5,3,3.07692307692308,2,2,2,1, ,4,2,5,1,5,2,2,2,1, ,2,8,2,1,1,1,1, ,1, , , , , , , , , , ,1,2,1,1,1,1,1,8,2,2,4,2,4,5,2,4,4,4,2,2,2,4,5,3,4,2,2,2,2,2,2,2,2,2,3,2,1,2,4,2,4,4,1,2,4,4,2,1,4,4,4,3,1,1,2,4,1,1,2,5,2,1,2,2,3,1,1.76923076923077,2,3,3,4,4,4,4,3,4,4,3,4,4,2,36,36.2,2,36.1,1,1,9,1,-.625624312184073,1.30731779713715,Poland
1989,2,3,1,3,3,2,3,2,3,2,2,2,2,2,2,2,2.66666666666667,0,3.33333333333333,2.11111111111111,81,2.94444444444444, ,2.36363636363636,1,2,2,1,2,5,3,2,2,2,1,7,2,2,3,1,5,4,2,2,2,5,2,2,2,2,2,6,2,2,3,4,2,6,4,2,3,11:11:17,2,2,36,4,4,4,4,5,4,3,2,2,2,4,6,5,2,3,2,2,35,2.2,2.54545454545455,3,4,4,3,4,1,1,1,2,2,3,3,3,2,3,1,2,2,2,1,1,2,4,5,4,4,2,2,2,4,3,3,3,2,3.07692307692308,2,2,1,1, ,4,4,4,4,8,8,6,6,1, ,2,3,2,1,1,1,1, ,2,pływanie, , , , ,1, , , , ,3,2,1,2,3,3,2,8,2,4,4,2,4,4,3,2,4,3,4,2,2,4,3,4,2,5,4,4,4,4,4,4,1,1,2,3,3,4,4,2,4,2,1,2,2,2,2,3,3,2,3,4,4,2,3,3,3,3,4,3,4,4,4,4,2,4,2.08333333333333,2,3,3,4,4,4,4,3,4,3,3,4,5,3,38.1,38.1,2,38.1,1,3,9,1,-.451454662947233,-.139499057970037,Poland
1996,2,3,1,3,4,2,4,2,2,2,2,2,2,2,3,2,2.55555555555556,0,3.77777777777778,2.33333333333333,68,2.94444444444444, ,2.45454545454545,1,3,2,2,2,2,2,5,2,2,1,6,2,2,2,2,5,2,2,3,3,2,2,3,3,2,2,2,2,2,5,3,1,6,6,4,2,11:07:50,2.2,2,9,4,5,4,4,4,4,4,2,4,3,4,4,5,3,3,3,2,23,3.4,2.90909090909091,4,4,4,4,4,1,2,2,1,2,4,4,2,2,2,1,2,2,2,4,1,4,2,4,2,4,2,1,2,3,2,4,3,4,2.84615384615385,2,2,2,1, ,4,4,4,1,5,1,4,4,2,1,2,3,2,1,1,1,1, ,1, , , , , , , , , , ,3,3,4,3,3,4,5,9,1,2,4,2,5,2,2,4,3,4,3,2,2,3,4,5,3,2,2,4,4,3,4,4,1,2,2,4,3,4,4,2,4,4,2,4,4,4,2,2,3,2,3,4,2,2,4,4,4,3,4,3,2,4,4,4,2,2,1.84615384615385,2,3,2,4,4,4,3,3,4,4,3,4,4,2,36.8,36.7,2,36.75,1,0,9,1,-.56756776243846,-.139499057970037,Poland
1995,5,4,1,4,2,4,5,3,3,3,3,1,5,2,2,2,2.61111111111111,14,4.77777777777778,3.22222222222222,68,3.33333333333333, ,3.36363636363636,1,6,5,2,2,4,2,2,1,2,1,6,2,2,1,2,4,2,1,2,3,5,1,4,3,3,6,2,2,2,6,4,3,6,6,1,1,11:02:58,2.4,2,20,4,5,5,3,5,5,5,5,5,5,5,5,4,3,2,5,6,27,4.6,3.63636363636364,5,5,5,4,5,1,4,2,2,2,5,3,4,2,4,3,4,2,3,4,1,5,4,4,5,4,2,4,2,3,4,3,5,2,3.61538461538462,2,2,2,1, ,4,4,4,4,5,3,5,3,2,1,2,8,2,1,1,1,1, ,1, , , , , , , , , , ,5,4,4,4,6,5,4,9,2,2,5,4,4,3,2,3,4,4,2,2,2,4,4,5,3,5,4,4,4,3,4,4,1,1,1,2,4,5,4,3,2,3,3,4,3,4,1,2,3,4,3,5,3,2,3,4,4,4,4,4,2,3,2,3,2,2,2.72727272727273,3,4,3,5,4,4,5,3,2,3,3,5,4,3,35.8,36.1,2,35.95,1,0,9,1,-.509511212692846,.265609661459975,Poland
1982,2,2,3,2,2,2,3,2,1,2,2,3,2,2,2,2,3.94444444444444,10,3.44444444444444,2.77777777777778,79,4, ,2.09090909090909,1,4,4,4,4,4,5,4,4,4,4,4,4,4,4,4,4,2,4,4,4,4,4,4,4,4,4,4,4,4,4,4,4,4,4,4,4,11:01:23,2.2,2,22,4,4,4,4,3,4,2,2,4,4,4,6,6,6,6,6,6,60,6,2.54545454545455,3,4,2,3,2,3,3,1,2,1,4,3,2,2,4,4,1,3,2,4,2,4,4,3,3,4,3,4,3,4,5,3,5,4,3.76923076923077,1,2,2,1, ,3,1,5,1,3,3,8,8,2,8,2,5,6,1,8,2,2,5,2,Uczniowie,Podopieczni, , , ,15,20, , , ,4,6,6,6,7,5,5,10,5,1,4,2,4,4,3,3,4,4,3,5,4,4,3,4,4,3,4,3,4,4,3,4,3,4,3,3,4,3,4,2,2,3,2,2,4,4,4,2,4,3,4,3,2,1,2,4,3,1,4,4,2,3,4,3,3,1,1.84615384615385,2,3,3,4,4,4,4,2,4,3,3,4,4,2,36.6,36.7,2,36.65,1, ,9,1,.883845981201879,.960081751911424,Poland
1982,1,1,1,1,1,1,1,1,1,1,1,1,1,1,1,1,2.11111111111111,4,5,1.55555555555556,79,2.05555555555556, ,1,1,1,1,1,1,7,1,1,1,1,1,7,1,1,1,1,5,5,1,1,1,7,1,1,1,1,1,1,1,1,2,1,1,7,7,1,1,10:57:28,1,2,7,4,5,5,5,5,5,5,5,5,5,4,6,3,2,2,2,2,31,2,1.54545454545455,2,2,2,2,2,1,1,1,1,1,2,1,1,1,1,2,5,1,1,1,1,3,4,5,5,5,3,4,1,5,5,5,4,4,4.07692307692308,2,2,1,2,2,4,4,4,2,4,4,5,5,2,1,2,8,2,1,1,2,1, ,1, , , , , , , , , , ,2,2,2,2,2,2,2,10,3,4,5,5,1,1,5,5,1,5,5,5,3,4,2,5,3,3,1,3,3,3,4,3,1,3,3,1,5,5,1,5,1,5,1,1,3,3,2,1,1,3,5,2,1,3,5,4,3,3,2,2,1,1,1,3,5,3,2.5,3,3,3,3,4,4,3,3,3,5,3,3,4,3,36.5,36.6,2,36.55,1, ,9,1,-1.03202016040337,-1.06546184523864,Poland
1996,2,2,1,2,2,2,3,2,2,2,2,2,1,1,1,2,3.38888888888889,0,4.77777777777778,2.77777777777778,75,3, ,2,1,5,5,2,2,2,2,5,3,3,2,3,5,2,2,2,7,7,2,2,2,6,2,2,1,2,2,6,2,2,2,2,2,6,6,2,5,10:57:19,1.4,2,40,4,5,5,4,5,4,5,5,5,5,4,8,7,6,6,6,6,27,5.6,3,4,4,5,4,4,2,2,2,2,2,2,4,4,2,4,2,1,2,2,4,1,4,4,4,5,5,1,2,4,4,3,5,1,3,3.46153846153846,2,2,1,1, ,4,4,4,4,4,4,5,3,1, ,2,8,2,1,1,1,1, ,1, , , , , , , , , , ,4,6,6,6,6,4,4,8,2,1,4,1,5,2,2,2,4,4,2,1,2,5,3,5,1,5,5,5,5,4,5,5,1,1,1,2,2,4,4,1,4,2,1,4,4,4,1,2,3,2,5,2,5,2,5,5,5,2,5,1,5,5,5,4,2,4,3.61538461538462,4,2,4,3,3,3,3,3,2,3,4,3,3,4,36.7,37.1,2,36.9,1,0,9,1,.303280483745743,-.0816263837657502,Poland
1996,2,2,2,2,3,2,3,3,2,2,2,2,2,1,2,2,3.05555555555556,2,2.22222222222222,3.66666666666667,65,1.77777777777778, ,2.27272727272727,1,1,1,1,4,4,6,4,1,2,1,7,2,3,3,2,7,5,1,2,1,3,1,2,1,2,1,1,1,3,2,1,2,3,3,1,2,10:51:06,1.8,2,18,4,3,2,2,4,3,1,1,2,2,4,5,7,6,6,4,2,27,3.6,3.09090909090909,4,4,4,4,4,2,3,1,2,2,4,4,4,4,4,4,3,3,3,4,1,3,4,4,2,5,3,2,2,3,4,4,4,3,3.30769230769231,2,2,2,1, ,4,4,4,4,3,3,4,3,2,1,2,8,2,1,1,1,1, ,1, , , , , , , , , , ,6,3,4,3,4,4,5,9,2,1,4,2,5,4,3,4,3,3,2,2,3,4,4,3,5,5,4,5,1,3,4,1,5,5,1,4,1,4,3,2,2,2,2,3,4,3,2,2,2,3,4,4,3,3,3,5,4,4,4,4,4,3,4,4,2,4,2.23076923076923,3,3,3,3,4,3,3,2,4,4,3,5,4,2,36.1,36.2,2,36.15,1, ,9,1,-.0450588147279379,-1.35482521626007,Poland
1994,4,4,4,4,4,2,4,2,2,4,5,4,2,1,2,1,5.33333333333333,1,4,2.33333333333333,49,3.22222222222222, ,3.54545454545455,1,6,6,6,6,7,6,6,6,6,6,2,6,5,3,6,5,6,2,2,5,6,1,5,1,1,3,2,3,1,5,3,2,6,6,3,3,10:49:16,2,2,21,4,4,4,4,5,5,4,2,4,4,5,6,7,8,8,8,8,27,6.4,2.45454545454545,1,4,4,4,4,1,1,1,1,2,4,4,1,1,4,1,2,2,1,5,1,1,1,4,2,2,1,1,1,1,1,2,3,2,1.69230769230769,2,2,2,1, ,4,4,4,1,3,1,5,5,2,1,2,8,6,1,4,1,1, ,1, , , , , , , , , , ,7,6,7,6,6,7,7,9,3,1,2,1,5,4,2,2,5,2,2,1,2,4,2,4,4,5,4,5,5,4,4,4,1,2,1,5,2,4,4,2,4,4,1,1,1,2,1,4,4,2,4,3,2,1,1,5,4,4,4,4,5,4,5,4,1,5,4.30769230769231,5,3,4,4,2,2,2,4,2,2,5,4,2,5,36.6,36.6,1,36.6,1,10,9,1,2.33525972484222,.1498643130514,Poland
1975,3,3,2,3,2,2,2,2,2,2,2,2,2,2,3,3,4.38888888888889, ,4.33333333333333,1.44444444444444,58,2.05555555555556, ,2.27272727272727,1,6,5,6,5,7,5,3,2,6,1,2,5,3,6,6,6,4,1,1,2,4,1,1,1,1,3,1,1,1,2,2,1,6,6,2,1,10:47:22,2.4,2, ,4,5,5,5,5,5,4,3,4,3,4,4,5,3,3,3,1,39,1.4,1.90909090909091,4,2,2,2,1,1,2,2,1,2,2,2,2,1,2,2,1,1,1,1,1,3,2,3,3,5,2,5,4,4,4,2,2,3,3.23076923076923,2,2,1,3,3,4,1,3,3,1, ,1,1,1, ,2,6,6,8,8,1,1, ,2,grupa taneczna kizomba, , , , ,5, , , , ,1,2,1,1,1,2,2,8,2,1,5,1,5,5,1,1,5,1,1,1,3,4,4,5,4,5,3,5,3,3,4,3,1,4,1,4,4,2,4,1,5,4,3,2,4,3,2,2,2,3,4,3,2,2,4,4,3,3,3,2,3,4,4,3,4,4,2.92307692307692,3,5,4,4,4,4,3,3,3,3,4,2,4,3,36.3,35.9,2,36.1,1,-3,9,1,1.34829837916679,-1.06546184523864,Poland
1985,2,4,1,2,1,2,2,2,2,1,2,1,1,4,5,3,2.77777777777778,2,4.77777777777778,1.88888888888889,85,3.66666666666667, ,1.90909090909091,1,5,2,7,1,6,4,2,2,1,1,7,5,2,1,1,1,1,1,5,1,7,2,5,5,7,3,2,1,2,1,1,5,7,7,2,3,10:45:35,2.8,2,7,4,5,4,5,5,5,5,5,5,4,3,4,4,2,3,5,5,63,1,2,4,2,3,3,1,1,2,1,2,1,2,2,2,2,2,2,1,2,2,2,2,2,5,5,5,5,1,5,5,5,5,5,2,4,4.15384615384615,2,1,4,1, ,4,4,5,1,3,2,5,4,1, ,2,8,6,8,8,5,1, ,2,pracownicy,znajomi,rozina,przyjaciele, ,6,5,10,4, ,1,1,1,1,1,1,1,8,3,2,4,4,4,2,2,2,4,4,2,2,2,3,4,4,4,4,3,4,4,4,3,3,4,2,4,2,4,4,2,2,2,4,2,2,5,4,2,2,4,2,2,4,2,3,3,4,3,3,3,4,5,2,4,2,4,2,1.75,3,3,3,4,4,5,4,2,4,4,3,5,4,1,36.4,36.5,1,36.45,1,0,9,1,-.335341563456005,.612845706685699,Poland
1996,4,3,3,3,4,4,4,3,4,3,4,2,4,1,2,2,3.38888888888889,0,3.22222222222222,3.33333333333333,55,2.27777777777778, ,3.54545454545455,1,3,4,1,2,7,5,6,2,2,2,4,2,3,4,2,5,5,2,6,2,2,1,2,2,3,2,1,1,1,4,3,4,2,1,2,2,10:44:08,2.2,2,5,4,3,3,3,3,3,3,3,4,4,4,3,5,3,2,6,5,30,3.8,3.27272727272727,4,4,4,4,4,2,2,2,3,3,4,3,3,2,3,4,4,3,4,4,1,2,2,3,4,3,1,4,2,3,3,2,2,3,2.61538461538462,2,2,2,1, ,4,4,4,2,3,3,5,5,2,1,2,8,2,1,1,1,1, ,2,Plan biznesowy, , , , ,3, , , , ,3,5,4,4,3,3,3,9,3,4,4,3,4,2,2,3,4,4,3,2,3,4,3,4,4,4,3,5,3,2,4,2,2,4,3,3,3,3,4,3,4,4,2,3,3,3,3,2,3,3,4,4,3,2,3,3,4,4,4,3,4,5,3,4,3,4,4,4,4,5,3,2,3,3,4,2,4,4,4,3,4,36.6,36.4,2,36.5,1,-3,9,1,.303280483745743,-.833971148421487,Poland
1986,4,5,2,2,4,4,5,4,3,4,4,3,4,1,3,2,4.27777777777778,7,4,4.66666666666667,89,3.44444444444444, ,3.72727272727273,1,3,6,3,2,5,3,6,4,6,5,2,4,4,3,6,6,7,2,5,4,3,3,3,2,2,2,2,3,2,6,6,2,6,4,3,4,10:39:06,2.6,2,13,4,4,4,4,4,4,4,4,4,4,4,5,5,4,4,5,4,20,4.2,4.18181818181818,5,4,5,4,5,4,4,4,3,3,5,5,5,4,5,5,4,5,4,5,1,1,2,1,2,2,1,1,1,2,2,2,2,1,1.53846153846154,2,2,1,2,2,3,1,4,1,1, ,2,3,2,1,2,3,2,1,1,1,1, ,1, , , , , , , , , , ,6,3,4,4,5,5,5,9,1,2,2,2,4,3,3,3,3,4,3,4,3,3,4,4,3,4,3,4,3,3,4,3,3,3,2,2,3,4,4,2,4,3,3,3,4,2,2,2,4,4,2,4,2,2,2,4,4,3,4,2,4,4,4,4,3,3,3.76923076923077,4,4,4,3,3,3,3,4,3,3,4,4,4,4,36.9,36.58,2,36.74,1,0,9,1,1.23218527967556,.38135500986855,Poland
1996,2,2,1,2,2,2,5,1,1,2,2,3,1,1,2,1,3.33333333333333, ,4.77777777777778,1.55555555555556,83,2.33333333333333, ,2,1,6,2,3,5,5,4,5,2,3,2,6,3,2,2,1,5,2,2,1,1,6,1,1,2,1,2,2,1,2,1,2,2,6,6,2,3,10:35:30,1.6,2, ,4,5,5,5,5,5,5,4,5,4,4,5,5,3,3,5,5,37,4,2.63636363636364,4,4,4,3,4,1,1,1,1,2,4,2,2,1,2,1,1,1,1,3,1,4,4,4,3,4,3,4,3,4,5,4,4,5,3.92307692307692,2,2,2,1, ,4,4,5,1,8,4,4,3,2,5,2,8,6,1,8,2,1, ,1, , , , , , , , , , ,4,4,4,4,4,4,4,9,3,2,4,3,5,2,2,4,2,5,3,2,2,5,4,4,4,5,5,5,5,5,5,5,1,1,1,3,4,4,4,3,2,2,1,1,4,4,1,1,3,2,4,3,1,1,4,2,2,3,4,4,5,5,5,4,4,2,2,2,3,3,5,4,4,4,2,4,3,3,5,5,2,36.6,36.6,1,36.6,1,2,9,1,.24522393400013,-.7760984742172,Poland
1992,1,2,1,3,2,2,4,2,1,1,2,3,1,1,3,2,2.11111111111111,5,5,3.22222222222222,86,2, ,1.90909090909091,1,1,1,1,5,4,1,1,2,1,1,7,2,1,1,1,6,1,1,2,1,3,1,1,1,1,2,1,2,2,2,3,1,5,4,2,2,10:34:33,2,2,40,4,5,5,5,5,5,5,5,5,5,5,6,4,2,2,2,2,32,1.8,2.63636363636364,4,2,3,2,3,2,2,2,2,3,4,5,4,2,4,3,2,3,2,4,1,4,3,4,4,4,2,3,2,4,3,4,3,4,3.38461538461538,2,2,1,2,2,4,4,4,4,6,6,2,2,2,1,2,8,2,1,1,2,1, ,1, , , , , , , , , , ,2,2,2,2,1,2,2,10,2,2,2,2,5,2,1,2,4,1,1,2,3,3,1,2,3,5,3,5,5,2,5,4,1,1,1,4,2,4,2,3,4,1,1,4,4,2,1,2,2,2,2,2,2,2,3,4,4,4,2,2,2,2,1,2,2,2,1.75,2,2,3,4,4,4,3,3,4,4,2,5,5,1,36.44,36.79,2,36.615,1,3,9,1,-1.03202016040337,-1.12333451944292,Poland
1984,2,2,2,2,2,4,4,2,3,2,2,4,2,1,2,1,2.44444444444444,2,5,1.11111111111111,83,2.27777777777778,4,2.45454545454545,1,2,1,1,2,4,4,2,2,2,2,6,2,2,2,2,4,2,2,2,2,2,2,3,2,2,2,2,2,2,2,2,2,4,4,2,2,10:29:21,2,2,2,4,5,5,5,5,5,5,5,5,5,4,6,5,4,3,3,2,30,4.6,1.63636363636364,2,2,2,2,2,1,1,1,2,1,2,1,1,1,1,1,2,1,1,1,1,3,3,5,5,5,2,3,3,5,5,5,5,4,4.07692307692308,2,1,1,1, ,4,4,2,2,6,1,6,3,2,1,2,8,3,1,8,1,1, ,1, , , , , , , , , , ,4,5,5,5,4,4,4,9,2,2,3,2,4,2,2,2,4,2,2,2,2,4,5,5,4,4,3,4,4,4,4,4,2,2,3,4,2,2,2,2,4,4,1,1,5,1,2,2,3,2,3,3,3,2,4,4,3,3,3,4,4,4,4,4,2,4,1.88888888888889,2,2,3,5,5,5,4,2,5,4,3,4,4,2,37,37.2,2,37.1,1,1,9,1,-.683680861929686,-.833971148421487,Poland
 ,2,2,1,2,2,2,3,2,3,2,2,3,1,1,3,1,3.11111111111111,0,3.44444444444444,2.77777777777778,67,2.55555555555556, ,2.09090909090909,1,2,2,3,5,2,4,2,2,2,4,6,4,2,2,4,6,2,2,2,2,5,2,3,2,2,2,2,2,2,3,2,1,5,4,3,2,10:28:41,1.8,2,8,4,4,4,4,4,3,3,2,4,3,3,4,6,2,3,4,4,39,2.8,2.72727272727273,4,4,4,4,3,1,1,2,2,2,3,4,4,3,4,1,2,2,2,3, ,2,4,5,2,3,1,2,2,4,3,3,4,2,2.84615384615385, ,2,1,1, ,4,2,4,1,6,6,6,4,1, ,2,6,6,8,8,1,1, ,1, , , , , , , , , , ,3,2,2,2,4,4,4,8,2,3,4,3,4,2,3,4,2,5,4,2,3,3,4,4,4,4,4,4,4,3,4,3,2,2,2,2,4,4,4,3,4,2,2,2,3,2,2,2,2,3,4,3,2,3,3,4,4,4,4,3,4,2,2,2,2,3,2,2,3,2,5,4,5,5,3,4,4,3,4,4,3,36.7,36.9,1,36.8,1,2,9,1,.0129977350176758,-.54460777740005,Poland
1992,3,3,4,4,2,1,4,2,1,2,1,3,2,2,3,2,2.83333333333333,3,4.11111111111111,3.33333333333333,52,3.38888888888889, ,2.45454545454545,1,2,2,1,3,4,6,1,2,2,3,7,2,3,1,2,5,4,1,4,5,4,2,5,4,2,3,2,2,1,7,5,4,6,2,1,2,10:28:01,2.4,2,5,4,4,5,5,5,4,4,2,4,4,4,4,4,2,1,3,3,26,3.8,2.81818181818182,5,4,4,4,3,1,2,1,1,2,4,2,4,2,4,4,2,5,2,5,1,4,3,4,2,4,1,2,2,5,4,2,4,3,3.07692307692308,2,2,2,1, ,4,4,4,2,4,2,5,5,2,1,2,8,2,1,1,1,1, ,1, , , , , , , , , , ,7,4,3,3,4,5,4,9,3,4,3,4,4,1,1,3,2,4,4,4,3,3,4,5,3,4,5,4,3,3,3,3,2,2,1,2,4,4,2,2,1,4,1,2,4,2,1,2,2,2,4,4,3,4,3,4,3,5,4,3,4,4,4,2,2,3,3.15384615384615,4,4,4,4,3,4,3,2,2,3,3,3,3,3,36.5,36.5,1,36.5,1,7,9,1,-.277285013710392,.323482335664262,Poland
1975,1,2,1,2,1,1,3,1,1,1,4,3,2,1,2,1,2.16666666666667,4,5,3.77777777777778,68,1.05555555555556, ,1.63636363636364,1,7,1,1,1,7,2,1,1,2,1,4,1,2,1,1,2,3,1,1,1,1,1,1,1,1,1,1,1,1,1,1,1,2,1,1,1,10:27:20,1.8,2,18,4,5,5,5,5,5,5,5,5,5,4,5,5,5,4,5,5,43,6.6,3.63636363636364,5,3,5,3,5,2,2,5,5,1,4,5,4,5,5,2,2,4,2,5,1,2,3,3,4,1,1,3,2,2,5,4,5,2,2.84615384615385,2,2,1,1, ,4,4,4,4,3,1,4,4,2,5,2,8,3,7,8,1,1, ,1, , , , , , , , , , ,7,7,7,6,6,7,7,9,3,5,5,2,5,4,4,2,5,1,1,5,2,4,1,3,5,5,3,5,5,3,5,5,1,1,1,5,2,2,5,2,2,2,5,3,4,3,1,4,2,4,4,2,2,1,5,5,5,3,2,2,2,4,2,3,3,4,2.7,3,4,4,5,4,5,4,2,4,4,4,5,5,3,36.8,37,2,36.9,1,0,9,1,-.973963610657754,-2.10716998091581,Poland
1996,2,2,3,1,2,2,3,2,2,3,2,3,2,2,3,2,4.44444444444444,0,3.66666666666667,2.77777777777778,55,2.55555555555556, ,2.18181818181818,1,5,3,5,5,5,6,4,5,4,5,3,6,4,5,2,6,4,3,2,1,3,1,1,3,5,2,2,1,3,2,1,5,5,3,3,3,10:20:01,2.4,2,10,4,5,4,4,4,4,3,3,3,3,4,7,6,5,6,2,1,22,5.4,3.63636363636364,5,2,5,4,5,3,4,2,4,3,3,4,2,2,2,2,2,2,4,5,1,4,3,3,3,4,2,2,3,3,4,3,4,3,3.15384615384615,2,2,2,1, ,4,2,5,1,4,1,3,2,2,4,2,6,2,1,1,1,1, ,1, , , , , , , , , , ,4,7,7,5,4,4,4,9,2,2,4,2,5,4,2,4,2,4,2,2,3,4,4,5,4,5,5,5,4,3,5,4,2,3,3,5,2,4,2,2,3,4,3,5,4,3,3,4,2,3,4,4,3,3,2,2,4,4,3,3,4,5,2,4,4,4,2.69230769230769,3,3,3,4,4,3,3,3,4,3,3,5,3,4,36.59,36.48,2,36.535,1,-3,9,1,1.4063549289124,-.54460777740005,Poland
1994,1,4,2,4,3,4,4,2,2,2,1,1,1,1,1,1,3.55555555555556,3,4,3.11111111111111,83,3.72222222222222, ,2.63636363636364,1,4,4,4,3,4,5,4,5,4,4,3,4,4,3,1,1,5,2,1,4,4,4,3,2,4,5,5,3,4,4,4,4,4,4,4,4,10:19:43,1,2,29,4,4,4,4,4,4,4,4,4,4,4,4,5,3,3,3,3,26,3.4,2.81818181818182,4,4,3,2,4,2,4,1,2,3,2,4,2,2,4,4,2,2,4,4,2,5,4,5,3,2,2,4,2,5,4,4,4,5,3.76923076923077,2,2,2,1, ,4,4,5,1,4,4,4,4,2,1,2,5,2,1,1,1,1, ,1, , , , , , , , , , ,2,3,3,3,4,4,3,9,2,4,2,2,3,2,2,2,4,1,1,1,1,1,4,2,4,4,4,4,4,4,4,4,2,2,2,5,4,3,4,2,2,2,2,2,4,4,1,3,2,2,2,2,2,2,3,2,4,5,5,2,2,4,4,3,3,4,2,2,2,2,4,4,3,4,2,4,5,2,3,5,4,35.8,36,2,35.9,1,1,9,1,.477450132982584,.670718380889987,Poland
1993,3,2,1,2,1,2,4,2,1,1,1,1,1,1,1,1,1.55555555555556,0,5,1,88,2.5, ,1.81818181818182,1,1,1,1,1,1,1,1,1,1,1,7,1,1,1,1,5,1,1,1,3,7,1,1,1,1,1,1,3,1,4,3,1,7,7,1,1,10:19:25,1,2,24,4,5,5,5,5,5,5,5,5,5,4,3,2,2,2,3,1,25,1.2,2.63636363636364,4,4,4,4,3,1,1,1,1,2,4,1,1,1,1,1,1,1,1,1,1,4,4,5,5,2,4,4,3,4,4,5,4,2,3.84615384615385,2,2,1,1, ,4,2,4,1,6,4,4,4,1, ,2,8,6,1,3,1,1, ,1, , , , , , , , , , ,1,1,1,1,1,2,1,8,2,1,5,4,4,5,1,1,4,1,2,1,1,4,5,5,5,5,2,5,4,3,3,2,1,1,1,2,1,4,1,3,3,4,1,1,1,5,3,1,3,2,5,4,1,1,1,5,4,3,3,5,4,3,3,2,2,1,1.69230769230769,2,3,3,4,4,4,4,3,4,4,2,4,4,2,37,36.9,2,36.95,1,0,9,1,-1.6125856578595,-.602480451604337,Poland
1983,3,3,1,3,1,1,4,1,2,2,2,2,2,1,2,2,2.88888888888889,0,4.88888888888889,2.88888888888889,82,3.05555555555556, ,2.09090909090909,1,2,2,2,2,5,4,1,5,2,2,6,5,1,1,1,5,4,2,2,2,5,2,1,3,4,5,5,2,2,3,3,2,5,5,2,2,10:19:16,1.8,2,4,4,5,5,5,5,5,5,4,5,5,4,3,5,1,3,1,3,26,5,3.36363636363636,5,4,5,5,5,1,2,1,2,2,5,3,4,3,2,4,2,1,2,5,1,4,2,5,5,3,3,2,2,4,4,3,5,3,3.46153846153846,2,2,1,2,2,3,3,1,1,3,3,3,3,1, ,2,8,6,1,3,1,1, ,1, , , , , , , , , , ,7,5,5,4,6,5,5,9,2,2,4,2,5,3,2,2,4,4,2,2,1,3,4,5,4,4,2,4,5,4,5,4,3,3,2,3,2,3,5,2,5,3,1,2,4,2,2,2,3,2,4,3,1,2,4,4,2,1,3,2,4,4,4,3,2,3,2.23076923076923,2,3,4,4,3,4,4,2,4,3,3,5,4,3,36.4,36.5,2,36.45,1,3,9,1,-.219228463964778,-.0237537095614629,Poland
1975,1,2,2,2,2,2,2,2,2,2,2,4,2,2,2,5,2.44444444444444,4,4,2,68,3.05555555555556, ,1.90909090909091,1,2,2,2,2,2,2,4,2,2,2,6,2,2,2,2,4,2,2,2,3,2,6,2,2,2,2,3,3,5,3,3,2,3,6,3,3,10:17:18,3,2,6,4,4,4,4,4,4,4,4,4,4,3,2,2,2,2,2,1,46,1.6,2,2,2,2,2,2,2,2,2,2,2,2,2,2,2,2,2,2,2,2,2,1,4,4,4,4,2,4,4,4,4,4,4,4,2,3.69230769230769,1,2,1,1, ,4,4,4,4,8,5,7,8,1, ,2,8,3,3,3,2,2,8,2, , , , , , , , , , ,1,2,1,1,2,2,1,9,4,3,3,3,3,3,3,3,4,4,3,3,3,4,3,2,4,4,3,4,4,3,3,3,3,3,3,3,3,3,3,3,1,2,2,2,4,2,2,3,2,2,4,3,2,4,3,3,3,3,3,3,3,3,3,2,2,2,3.07692307692308,2,2,2,2,2,2,2,2,2,2,2,2,2,2,36.5,36.5,1,36.5,1,0,9,1,-.683680861929686,-.0237537095614629,Poland
1995,3,2,2,4,4,3,4,4,1,2,4,4,2,1,5,3,1.83333333333333,4,3.44444444444444,3.66666666666667,81,2.55555555555556, ,3,1,2,1,1,1,1,2,2,1,1,1,7,1,1,1,1,6,2,1,2,2,6,2,1,2,2,2,2,1,1,1,1,5,6,6,2,2,10:15:52,3,2,9,4,5,4,3,4,3,2,3,4,3,4,4,5,4,4,2,2, ,2.4,3.63636363636364,4,4,4,5,5,1,4,4,1,4,4,5,4,4,5,2,1,5,2,5,1,1,2,1,3,4,1,1,1,3,4,2,4,2,2.23076923076923,2,2,1,1, ,4,2,4,1,1, ,4,4,1, ,2,4,2,1,1,1,1, ,2,moderatorzy forum internetowego,-,-,-,-,4,0,0,0,0,2,2,2,2,3,3,2,8,1,5,5,2,4,4,2,2,4,5,5,2,1,2,4,5,3,4,2,4,3,2,4,3,2,4,2,2,4,4,4,3,5,2,1,2,2,2,1,2,4,4,2,4,1,2,2,4,4,2,2,4,1,4,3,2,2,4,2.92307692307692,3,3,4,4,3,4,3,3,2,2,4,4,4,2,36.5,36.6,2,36.55,1,0,9,1,-1.32230290913144,-.54460777740005,Poland
1991,4,5,2,4,2,4,5,5,4,3,4,1,1,3,5,3,2.66666666666667,4,4.55555555555556,1.88888888888889,75,5.38888888888889, ,3.81818181818182,1,1,1,1,5,4,2,1,4,2,1,6,2,2,2,5,6,2,1,7,7,4,6,6,6,6,6,5,4,4,5,6,6,4,4,4,7,10:15:05,2.6,2,2,4,5,5,5,5,5,5,5,3,3,3,3,4,2,2,1,1,24,1.8,2,2,2,2,2,2,2,2,2,2,2,2,2,2,3,1,1,1,2,2,3,1,4,3,5,4,4,1,3,2,4,5,1,5,2,3.30769230769231,2,2,2,1, ,4,4,5,1,4,2,3,1,2,4,2,8,2,1,1,1,1, ,1, , , , , , , , , , ,3,1,1,1,4,2,3,9,2,3,3,5,5,4,4,4,4,3,2,1,3,4,5,5,3,3,3,3,4,3,2,2,3,2,4,5,4,2,2,3,3,4,3,4,5,4,2,1,3,4,1,5,2,1,4,4,3,3,1,5,4,2,4,3,2,4,1.84615384615385,3,3,3,3,4,4,4,2,4,4,2,3,4,2,36.2,36.2,2,36.2,1,0,9,1,-.451454662947233,2.40689860701861,Poland
1975,2,2,1,2,2,2,2,2,2,2,1,3,4,2,2,3,2.11111111111111,0,4,2.33333333333333,75,2.38888888888889, ,1.81818181818182,1,1,1,1,1,4,2,1,1,2,2,7,2,2,2,1,5,2,1,2,3,4,1,1,2,1,2,1,3,2,3,3,1,5,5,1,3,10:13:53,2.8,2,1,4,4,4,4,4,5,4,3,4,4,2,2,4,2,2,2,2,49,1.8,2.36363636363636,3,2,4,2,3,2,2,1,2,2,3,2,3,2,4,2,1,2,3,2,1,3,4,4,3,3,2,4,2,4,4,3,3,3,3.23076923076923,2,2,1,2,2,4,4,4,4,8,6,6,6,2,1,2,4,6,2,8,2,1, ,2,ZNP, , , , ,5, , , , ,1,2,2,1,2,2,2,10,2,2,4,3,4,2,2,3,2,4,3,2,3,5,2,2,4,4,3,3,3,3,4,4,2,2,2,3,4,3,3,4,2,2,1,2,3,3,2,3,3,3,4,4,2,2,4,3,2,3,4,3,4,3,3,3,4,2,1.76923076923077,3,3,3,4,4,4,4,2,4,4,3,4,4,2,36.6,35.9,2,36.25,1,-1,9,1,-1.03202016040337,-.718225800012912,Poland
1996,5,4,5,4,5,5,5,4,5,4,5,2,3,1,5,3,5.66666666666667,1,4.33333333333333,5,70,4.11111111111111, ,4.63636363636364,1,6,6,6,6,7,6,6,6,6,2,2,7,6,7,6,6,7,4,2,3,6,4,4,4,5,3,4,3,2,6,4,5,4,5,5,5,10:11:23,2.8,2,11,4,4,4,4,3,4,5,5,5,5,5,7,7,6,6,7,6,29,6.2,4.36363636363636,5,5,5,5,5,4,4,4,3,3,5,5,5,5,5,5,5,5,5,5,1,4,1,3,4,4,2,4,3,2,3,4,3,2,3,2,2,2,1, ,4,2,4,1,6,4,4,4,2,1,2,4,6,1,4,1,1, ,2,grupa fanów zespołu, , , , ,2, , , , ,7,6,6,6,6,7,7,9,1,2,4,2,5,4,1,2,4,4,2,2,5,5,4,5,5,5,5,5,4,4,4,5,3,3,3,1,5,5,3,3,5,1,4,3,5,5,1,2,4,4,3,4,5,2,2,4,5,5,5,2,5,5,5,5,2,5,4.69230769230769,5,5,5,3,3,2,3,5,1,3,5,5,2,5,36.9,37,2,36.95,1,4,9,1,2.6835990233159,1.07582710032,Poland
1975,1,1,1,1,1,1,1,1,1,1,1,2,2,1,2,2,1.33333333333333,2,4.11111111111111,1.22222222222222,67,4.11111111111111,3,1,1,1,1,1,1,1,1,1,1,1,1,7,1,1,1,1,1,1,1,4,4,7,4,3,4,5,4,4,3,2,5,4,3,7,7,2,2,10:08:56,1.8,2,4,4,5,5,5,5,5,3,3,3,3,4,3,5,2,3,2,2,39,4.6,1.54545454545455,3,1,2,2,2,1,1,1,1,1,2,1,1,1,2,1,1,1,2,1,1,4,5,4,5,5,3,3,4,3,5,5,5,3,4.15384615384615,2,1,1,3,3,4,1,3,3,3,2,3,2,1, ,2,4,3,1,8,2,2,8,1, , , , , , , , , , ,3,5,5,5,4,4,4,10,2,1,5,2,4,2,1,1,1,5,3,1,1,3,4,4,4,3,2,4,1,4,4,1,2,4,3,1,5,3,4,4,2,3,2,1,4,2,3,3,1,1,5,2,1,1,4,4,4,2,3,3,2,4,3,2,4,2,1.5,2,2,3,4,5,5,4,1,4,4,2,4,5,1,36.9,37,1,36.95,1,1,9,1,-1.84481185684196,1.07582710032,Poland
1996,3,1,1,1,1,3,3,1,1,2,1,2,1,1,1,1,5.05555555555556,6,5,3.77777777777778,72,5.55555555555556, ,1.63636363636364,1,6,7,6,7,6,7,5,7,7,5,3,1,1,1,7,7,7,1,1,7,7,2,6,7,3,7,2,7,7,7,6,3,7,7,7,7,10:07:34,1.2,2,7,4,5,5,5,5,5,5,5,5,5,5,8,7,6,8,8,8,31,7,3,4,3,3,3,3,4,3,3,2,3,2,3,4,3,3,3,5,5,4,4,2,3,4,5,5,5,1,2,2,1,3,3,4,2,3.07692307692308,2,2,2,1, ,4,2,5,1,8,3,3,3,1, ,2,8,3,1,8,3,2,1,1, , , , , , , , , , ,7,7,7,7,7,7,7,9,2,1,5,4,4,5,5,5,5,5,3,1,5,5,5,4,1,4,4,3,5,4,4,5,4,1,5,3,1,1,3,2,2,1,2,1,5,1,5,1,1,5,5,2,1,1,4,5,4,4,4,3,4,4,4,4,4,4,3.08333333333333,5,3,3,3,4,3,3,3,1,4,4,3,5,1,36.4,36.7,2,36.55,1,0,9,1,2.04497697611415,2.58051662963147,Poland
1990,2,3,2,2,2,2,2,2,2,2,2,4,2,2,2,1,1.66666666666667,0,3.33333333333333,1,59,1.72222222222222, ,2.09090909090909,1,1,1,1,1,1,1,1,1,1,1,7,1,2,2,1,4,2,1,1,3,1,1,2,2,1,1,1,2,1,2,2,1,4,4,1,1,10:06:11,2.2,2, ,4,4,4,4,4,4,2,2,2,4,4,5,4,2,5,2,5,36,1.2,1.27272727272727,2,1,1,2,1,1,1,1,1,1,2,1,1,1,1,1,1,1,1,1,1,5,4,5,5,5,4,4,5,5,4,5,4,4,4.53846153846154,2,2,1,1, ,4,2,4,4,8,3,7,5,2,5,1, ,6,1,6,1,1, ,1, , , , , , , , , , ,1,2,1,1,1,1,2,8,3,2,4,2,4,3,2,2,2,2,1,2,2,4,3,4,4,4,4,4,2,4,4,2,2,2,2,4,1,2,3,1,2,1,2,2,3,2,2,2,2,2,2,2,2,2,2,2,3,3,3,3,2,2,2,2,4,1,1.53846153846154,1,2,1,4,4,3,4,2,2,4,1,2,4,1,36.7,36.6,2,36.65,1,-3,9,1,-1.49647255836828,-1.41269789046436,Poland
1980,3,1,1,2,2,3,2,1,2,1,2,4,2,2,3,2,3.83333333333333,0,4,2.55555555555556,83,2.72222222222222, ,1.81818181818182,1,5,5,5,5,5,2,5,3,6,5,3,2,2,1,5,7,2,1,2,2,6,2,2,2,1,2,2,3,3,3,3,1,6,2,3,4,10:04:45,2.6,2,5,4,4,4,4,4,4,5,3,4,4,4,5,6,6,5,4,1,33,4.8,2.72727272727273,5,4,4,4,4,1,1,1,1,1,4,3,2,4,3,3,2,2,2,2,1,2,3,2,4,5,2,4,2,3,3,2,4,3,3,2,2,1,2,2,2,2,4,1,8,4,4,3,2,3,2,6,6,1,3,1,1, ,2,studencka, , , , ,4, , , , ,5,5,5,5,5,4,4,10,2,1,4,3,4,5,1,2,5,5,3,1,4,4,4,4,4,5,2,5,5,3,4,4,1,1,3,1,1,3,1,2,3,3,1,5,5,4,1,1,2,5,4,3,2,1,3,4,4,2,4,2,4,2,3,4,1,4,2.84615384615385,3,4,4,4,4,4,4,3,3,3,3,3,3,4,35.9,36.2,2,36.05,1,0,9,1,.767732881710652,-.370989754787187,Poland
1981,2,2,2,2,2,2,2,2,2,2,2,3,3,2,2,3,2.5,1,4,2.77777777777778,62,2.55555555555556, ,2,1,2,2,2,2,2,2,2,2,6,2,6,2,3,2,2,2,2,2,2,2,3,2,2,2,2,2,2,2,2,3,2,2,6,6,2,2,9:54:11,2.6,2,5,4,4,4,4,4,4,4,4,4,4,4,5,6,4,4,4,4,77,4.6,3.09090909090909,4,4,4,4,3,2,2,2,3,2,4,3,4,2,4,3,2,3,2,2,1,4,4,4,3,5,4,4,2,4,4,4,4,2,3.69230769230769,2,2,1,3,3,3,1,2,2,6,5,6,6,2,1,2,8,6,8,8,5,2,8,2,Counselling,PTO,International Club, , ,10,15,10, , ,4,4,5,4,5,5,4,11,5,2,4,4,4,3,2,2,2,5,2,1,4,4,2,3,4,4,3,4,4,3,4,4,2,2,3,2,4,3,3,2,2,3,2,2,4,3,2,2,2,3,4,3,1,2,3,4,3,3,3,4,3,3,3,3,3,2,1.53846153846154,2,2,3,4,4,4,4,2,4,4,2,4,4,2,35.4,37.7,2,36.55,1,-2,9,1,-.625624312184073,-.54460777740005,Poland
1975,1,2,1,2,1,1,2,1,1,1,1,3,1,1,2,2,2.33333333333333,0,4.88888888888889,2.77777777777778,72,2.83333333333333, ,1.27272727272727,1,2,1,1,2,4,2,1,1,2,1,7,1,2,2,1,6,5,1,2,5,5,1,2,1,2,2,2,2,3,3,2,2,7,7,2,1,9:54:01,1.8,2,4,4,5,5,4,5,5,5,5,5,5,3,4,6,6,6,6,6,32,3.6,2.72727272727273,4,2,4,3,4,2,2,1,3,1,4,4,4,2,4,2,2,2,3,2,1,4,3,5,5,2,3,3,3,4,4,4,5,4,3.76923076923077,2,2,1,4,4,4,2,4,1,8,6,4,4,2,1,2,5,6,1,3,1,1, ,1, , , , , , , , , , ,3,3,3,3,5,4,4,10,2,1,4,2,5,3,2,2,2,4,1,1,2,5,1,3,4,4,3,4,3,4,4,3,1,3,1,1,2,4,4,3,3,2,1,2,4,2,4,3,2,4,2,4,3,2,4,4,3,4,4,2,3,4,3,3,3,4,1.84615384615385,2,3,3,4,4,4,4,3,3,4,2,4,4,2,36.5,36.4,2,36.45,1,6,9,1,-.799793961420913,-.255244406378612,Poland
1977,2,2,2,2,2,2,4,2,3,2,2,2,2,2,2,2,1.94444444444444,0,4.77777777777778,1,68,1.77777777777778, ,2.27272727272727,1,2,1,1,1,1,5,1,1,7,1,7,1,1,1,1,1,1,1,1,1,3,1,1,1,1,1,1,2,1,7,1,1,3,4,1,1,9:52:42,2,2,5,4,5,5,5,5,5,5,4,5,4,3,4,5,3,3,2,3,42,2.4,1,1,1,1,1,1,1,1,1,1,1,1,1,1,1,1,1,1,1,1,1,1,5,5,4,5,5,5,5,3,5,5,5,4,3,4.53846153846154,2,2,1,2,2,4,4,4,4,8,6,4,4,1, ,2,8,3,2,2,3,1, ,2,Koło muzyczne, , , , ,6, , , , ,1,3,3,2,2,2,2,9,2,2,5,2,5,5,5,5,3,2,2,3,3,4,4,4,4,4,4,5,5,3,5,5,1,1,2,1,1,1,3,2,3,2,1,1,4,2,4,2,3,4,4,3,2,4,4,4,4,4,3,2,5,4,3,4,3,3,2.28571428571429,4,2,2,5,5,5,5,2,3,5,1,4,5,1,36.5,36.3,2,36.4,1,0,9,1,-1.20618980964021,-1.35482521626007,Poland
1983,3,3,3,2,3,3,2,4,3,3,2,2,4,2,4,2,3,0,1,2.55555555555556,85,3, ,2.81818181818182,1,1,1,2,2,5,1,1,4,7,1,7,1,1,1,7,5,6,1,2,3,7,1,1,5,1,1,6,4,3,4,4,1,1,7,1,2,9:28:10,2.8,2,12,4,1,1,1,1,1,1,1,1,1,4,5,7,4,4,4,4,21,4.6,2.18181818181818,2,2,2,2,2,2,2,2,4,2,2,3,4,2,3,3,2,2,2,2,1,2,5,4,2,5,4,4,1,2,5,1,4,4,3.30769230769231,2,2,1,1, ,3,1,5,1,2,2,2,2,1, ,2,2,3,1,2,3,1, ,1, , , , , , , , , , ,2,5,4,4,5,5,5,8,1,1,4,2,5,2,2,4,4,4,1,2,4,4,4,2,4,4,4,4,1,2,4,1,1,1,1,3,2,4,4,2,2,2,1,3,3,1,5,4,3,2,2,2,4,1,2,4,2,2,4,4,4,4,4,4,4,4,1.55555555555556,1,3,2,4,5,5,5,2,5,4,2,2,4,1,36.31,36.12,2,36.215,1, ,9,1,-.103115364473551,-.0816263837657502,Poland
1987,2,3,2,3,2,3,3,3,2,2,2,4,2,2,3,2,2.55555555555556,12,4.22222222222222,2,87,4.55555555555556, ,2.45454545454545,1,2,2,2,2,2,2,2,2,3,5,6,2,2,2,2,4,2,2,4,6,6,3,6,5,4,4,2,3,4,6,6,4,6,6,4,3,20:24:17,2.6,2,10,3,4,5,5,5,5,3,3,4,4,5,6,4,4,4,4,4,55,5.2,2.36363636363636,1,3,1,4,4,2,2,2,3,1,3,3,2,3,1,3,1,1,2,2,1,4,4,5,4,4,2,3,3,3,3,4,4,3,3.53846153846154,2,2,1,2,2,2,2,4,4,8,8,8,8,2,3,2,8,3,8,8,3,1, ,1, , , , , , , , , , ,7,6,6,4,5,5,5,10,3,2,2,2,5,3,3,3,4,3,2,2,3,4,4,4,4,4,4,4,4,3,3,4,3,2,3,4,4,4,3,2,4,2,4,3,4,3,3,3,3,3,4,3,2,2,3,4,4,3,3,3,4,3,4,4,4,4,2.61538461538462,3,3,3,3,4,4,3,3,3,3,2,4,3,3,36,36,2,36,1,4,9,1,-.56756776243846,1.5388084939543,Poland
1993,2,3,4,4,4,3,4,3,2,3,2,2,2,3,3,2,5.22222222222222,0,3.22222222222222,1.88888888888889,81,1.88888888888889, ,3.09090909090909,1,7,5,6,5,7,6,7,7,6,3,1,3,4,6,7,6,6,2,2,3,2,2,2,1,2,3,2,2,1,2,2,1,3,2,1,1,20:14:32,2.4,2,4,3,3,4,2,2,3,4,3,4,4,5,7,4,2,2,6,6,29,3.8,3.18181818181818,4,5,4,4,4,2,2,2,2,2,4,1,2,2,1,4,1,2,2,2,2,2,1,5,4,4,1,1,2,2,3,4,4,4,2.84615384615385,1,2,2,1, ,4,4,5,1,7,1,4,4,1, ,2,8,6,4,5,1,1, ,1, , , , , , , , , , ,7,4,3,2,5,5,5,8,2,2,4,2,4,2,2,2,2,4,2,4,2,4,2,4,4,4,3,5,2,2,5,2,2,3,1,3,2,4,4,2,4,2,2,1,3,4,4,2,3,4,4,4,1,1,3,4,4,4,4,4,4,5,3,3,4,2,4.07692307692308,4,3,5,1,2,2,3,4,3,2,4,4,3,3,36.8,37,2,36.9,1,-3,9,1,2.21914662535099,-1.2390798678515,Poland
1991,3,4,2,4,4,3,4,2,2,3,2,3,2,1,3,3,3.88888888888889,4,3,2.88888888888889,85,3.66666666666667,12,3,1,4,3,4,4,5,5,2,4,3,4,3,5,5,4,3,3,5,4,2,4,5,3,5,2,2,3,3,4,3,5,5,3,5,5,3,4,17:56:47,2.4,2,13,3,2,3,3,3,4,3,4,3,2,4,4,6,3,4,5,4,34,4.6,3,3,2,3,3,4,3,3,2,4,2,4,3,3,4,2,3,3,2,3,3,1,2,3,5,3,3,2,2,3,4,4,4,3,2,3.07692307692308,2,1,1,1, ,4,4,3,3,5,5,8,5,2,1,1, ,2,4,2,1,1, ,1, , , , , , , , , , ,3,6,4,3,5,5,5,8,2,4,4,2,4,3,3,3,3,4,2,2,2,4,3,4,4,3,4,3,4,3,4,4,3,4,4,3,2,2,4,2,3,2,2,3,4,3,4,2,3,3,3,3,2,2,4,4,4,2,4,3,4,3,4,3,4,2,2.92307692307692,4,3,3,3,2,4,3,4,4,4,3,4,3,3,35.8,36,2,35.9,1,3,9,1,.825789431456265,.612845706685699,Poland
1987,2,2,2,2,1,2,2,1,1,1,1,3,3,1,2,2,3.61111111111111,12,2.66666666666667,1.55555555555556,85,4.55555555555556, ,1.54545454545455,1,5,3,2,5,3,5,4,5,4,2,5,2,2,6,2,5,3,2,5,4,2,4,4,5,2,6,5,4,3,6,5,3,7,6,6,5,12:43:59,2.2,2,17,3,4,2,3,4,3,2,1,3,2,4,6,5,2,2,4,2,34,2.8,1.90909090909091,2,1,2,3,2,1,1,3,2,1,3,1,1,1,2,2,2,1,2,2,2,5,5,5,4,5,4,4,3,5,4,4,5,4,4.38461538461539,2,2,2,1, ,4,4,5,1,3,3,5,3,2,1,2,5,6,1,8,1,2,3,1, , , , , , , , , , ,2,3,2,2,3,4,4,10,2,4,4,2,4,3,2,2,2,5,4,1,3,3,4,4,4,4,2,3,2,2,3,2,2,4,2,2,2,5,2,3,2,1,2,1,2,2,4,2,2,4,4,3,1,2,2,4,4,3,4,4,4,4,4,4,2,4,2.27272727272727,2,3,4,5,4,5,3,1,4,4,4,2,4,2,36.8,36.8,1,36.8,1,1,9,1,.535506682728197,1.5388084939543,Poland
1980,1,2,4,1,1,2,2,1,1,2,2,2,1,1,1,1,2.27777777777778,1,4.55555555555556,2.11111111111111,71,2.5, ,1.72727272727273,1,1,1,1,1,7,2,1,1,4,1,7,2,2,1,1,6,1,1,1,2,5,1,2,1,1,1,1,3,2,3,5,1,6,7,1,2,12:39:43,1.2,2, ,3,5,5,5,5,5,4,4,4,4,5,7,7,5,5,6,4,56,3.6,2.36363636363636,2,5,2,2,1,2,4,1,4,1,2,1,3,2,4,2,3,1,2,1,1,5,1,1,5,5,1,1,2,2,5,5,5,5,3.30769230769231,2,2,1,1, ,3,3,4,2,4,4,3,3,1, ,2,6,3,1,8,1,2,7,2,Fundacja przeciwko przemocy,Fundacja samotnych matek,Imperium Kobiet, , ,6,5,10, , ,3,4,4,4,3,3,3,9,3,1,5,4,4,4,1,5,5,4,4,1,4,4,5,5,4,4,4,4,4,1,4,4,1,1,1,4,2,5,5,2,3,3,1,1,4,3,5,4,3,3,4,4,1,5,3,4,3,2,3,3,5,3,5,5,2,4,2.58333333333333,3,3,3,4,5,4,4,2,4,2,4,4,2,3,37.1,37.1,2,37.1,1,9,9,1,-.857850511166527,-.602480451604337,Poland
1996,2,1,2,2,3,4,4,1,1,2,2,4,1,1,2,1,3.5,0,4.55555555555556,4.11111111111111,68,2,4,2.18181818181818,1,6,5,2,1,4,7,5,6,6,1,1,1,1,1,1,7,7,1,1,1,7,1,1,1,1,1,1,1,1,1,1,1,7,7,1,1,12:23:48,1.8,2, ,3,5,4,4,5,5,4,4,5,5,3,6,7,4,4,4,4,23,2.8,4.09090909090909,5,4,5,5,5,2,4,4,2,4,5,4,5,4,4,4,4,5,3,4,1,4,2,4,4,5,2,2,4,3,3,3,2,3,3.15384615384615,2,1,2,1, ,4,4,5,1,3,1,2,4,2,1,2,8,2,1,1,1,1, ,1, , , , , , , , , , ,1,4,3,3,2,2,3,9,2,1,4,1,4,4,4,4,3,2,2,1,2,5,1,2,5,5,4,5,5,4,5,5,1,1,1,5,1,1,4,2,4,1,1,2,3,4,2,2,2,3,2,3,2,1,1,4,5,5,4,1,2,4,4,3,4,4,2.91666666666667,3,2,3,3,5,3,4,2,3,3,5,4,2,2,36.5,36.4,2,36.45,1,0,9,1,.41939358323697,-1.12333451944292,Poland
1995,4,4,2,4,4,3,4,2,4,3,2,2,1,2,2,4,5.05555555555556,2,3.66666666666667,3.66666666666667,59,2.55555555555556, ,3.27272727272727,1,5,6,5,5,7,6,5,5,7,4,3,5,4,5,5,5,5,4,4,3,4,2,3,1,1,3,1,2,2,3,2,1,4,4,3,3,12:03:55,2.2,2,6,3,4,4,4,4,4,3,2,4,4,5,8,7,8,8,8,8,33,2,3.36363636363636,4,4,4,3,4,2,3,4,3,2,4,4,4,4,4,4,3,4,2,4,1,2,2,4,5,4,2,3,4,2,4,3,4,3,3.23076923076923,2,2,2,1, ,4,4,5,1,6,5,6,6,2,2,2,8,2,1,1,1,2,3,1, , , , , , , , , , ,2,2,2,2,2,2,2,10,3,2,4,3,4,4,2,3,2,5,3,3,2,4,3,4,4,4,4,4,4,4,4,3,2,2,2,4,4,4,4,3,4,3,2,4,4,2,2,2,3,3,4,4,3,2,2,4,4,3,3,3,3,4,2,2,2,4,3.38461538461538,3,4,5,3,4,3,3,3,3,3,4,4,3,3,36.7,36.8,1,36.75,1,3,9,1,2.04497697611415,-.54460777740005,Poland
1962,5,4,4,4,3,4,4,4,5,3,3,2,4,1,5,2,4.61111111111111,19,4.11111111111111,3.33333333333333,77,3.16666666666667, ,3.90909090909091,1,6,6,5,4,6,5,4,5,6,6,2,4,4,7,2,7,2,2,2,2,4,3,2,2,1,5,5,3,3,3,2,2,6,4,6,2,11:54:07,2.8,2,19,3,4,4,4,3,3,5,5,5,4,4,5,4,2,2,2,2,38,4,3.36363636363636,4,4,4,4,4,3,2,3,3,2,4,4,4,3,2,4,5,2,2,4,1,1,1,1,2,2,1,4,2,2,3,2,2,1,1.84615384615385,1,2,1,3,3,4,4,4,4,8,3,8,3,2,1,2,8,3,4,5,2,1, ,1, , , , , , , , , , ,6,3,3,5,5,4,5,10,2,4,4,3,3,2,2,3,2,4,3,4,3,4,2,3,5,5,4,5,4,4,4,4,1,2,3,2,4,4,2,4,1,3,2,2,4,2,2,1,2,2,5,2,2,2,3,3,3,4,4,2,1,3,3,3,4,3,3.23076923076923,3,4,5,4,3,4,3,2,3,3,5,5,4,4,37,36.5,2,36.75,1, ,9,1,1.58052457814924,.0919916388471121,Poland
1980,3,2,2,3,2,4,4,2,3,2,2,3,3,2,2,2,2.5,4,3.77777777777778,2.11111111111111,84,3.11111111111111, ,2.63636363636364,1,2,2,1,2,4,2,2,1,1,2,7,2,4,2,2,5,2,2,2,2,6,2,2,2,2,2,2,3,2,5,4,2,6,6,2,4,11:47:28,2.4,2,17,3,4,4,4,4,4,4,3,4,3,4,7,6,4,3,2,4,62,3.2,2,2,2,2,2,2,2,2,2,2,2,2,2,3,2,2,2,2,2,2,2,1,4,5,5,5,4,2,4,3,3,4,4,4,3,3.84615384615385,2,2,1,1, ,2,2,4,1,6,6,6,5,1, ,2,8,6,1,8,4,2,8,2,Trening MBRS,KSR,Grupa psychologiczna, , ,10,12,4, , ,2,4,3,3,4,2,3,9,4,2,4,3,4,4,3,3,4,4,2,1,3,4,3,4,4,4,4,4,3,3,4,3,2,2,2,3,3,4,4,3,3,3,2,3,4,2,3,2,3,3,3,2,4,2,4,4,4,3,4,2,4,4,4,3,4,3,2.38461538461538,3,3,3,3,3,4,4,4,4,4,3,4,4,3,37.3,37.3,1,37.3,1,2,9,1,-.625624312184073,.0341189646428248,Poland
1992,2,3,2,3,2,2,3,3,2,2,2,2,1,1,2,1,3.77777777777778,0,1.88888888888889,1.66666666666667,58,3.94444444444444, ,2.36363636363636,1,3,3,3,4,6,6,5,5,4,1,3,3,4,2,4,6,4,2,2,2,7,3,5,2,4,4,4,3,2,6,6,3,6,6,3,3,11:39:23,1.4,2,36,3,2,2,4,2,1,1,1,1,3,5,6,6,6,6,5,4,50,3.4,2.27272727272727,4,4,3,4,1,1,1,1,1,2,3,1,1,1,4,1,3,1,2,1,2,2,2,4,3,4,3,5,2,3,4,3,4,3,3.23076923076923,1,2,2,1, ,4,2,4,1,4,1,2,2,1, ,2,8,6,1,8,1,1, ,2,studia,sport,praca,on-line, ,10,6,10,5, ,4,3,3,6,3,2,2,8,2,4,3,2,4,2,2,2,4,5,5,2,3,5,4,2,3,4,2,4,1,3,4,1,2,5,2,1,2,4,3,3,2,2,2,2,2,2,1,2,4,4,4,3,2,2,3,3,4,4,3,2,4,5,4,3,4,3,2.09090909090909,3,2,3,4,5,5,4,3,3,4,2,4,4,3,36.7,36.7,1,36.7,1,-3,9,1,.709676331965038,.902209077707137,Poland
1992,3,4,4,4,4,4,4,4,3,3,2,2,4,3,3,3,3.61111111111111,1,4.22222222222222,2.33333333333333,81,4.94444444444444, ,3.54545454545455,1,4,3,5,5,4,4,2,4,3,2,4,4,2,1,2,7,6,3,5,5,7,3,5,5,2,5,5,6,4,6,6,2,7,7,3,6,11:37:14,3,2,6,3,5,4,5,4,4,4,4,4,4,4,7,7,6,7,6,6,22,6.8,3.09090909090909,5,4,4,4,4,1,2,1,3,2,4,3,2,3,3,2,2,3,1,2,1,5,5,4,5,5,4,5,4,4,5,5,3,5,4.53846153846154,2,2,1,1, ,4,2,3,1,3,2,2,2,2,1,2,4,2,1,1,1,2,2,1, , , , , , , , , , ,7,6,7,7,7,7,7,10,1,2,4,4,4,2,2,2,4,4,2,2,1,3,5,5,4,3,2,3,4,3,2,3,1,1,2,3,3,4,4,3,3,3,2,4,4,4,3,2,4,4,4,4,1,1,3,4,3,2,3,3,4,3,4,4,3,4,4,5,5,5,3,3,3,3,5,3,4,4,5,4,5,36.95,36.92,2,36.935,1,-3,9,1,.535506682728197,1.94391721338431,Poland
1995,2,2,2,1,2,2,2,1,2,2,1,2,1,2,4,1,4.05555555555556,2,3.77777777777778,3.55555555555556,81,5.05555555555556, ,1.72727272727273,1,4,4,3,6,7,5,4,5,7,3,1,2,2,1,5,7,6,1,5,4,6,5,6,5,6,6,3,2,4,6,5,5,7,7,5,4,11:36:49,2,2,32,3,5,3,5,4,2,4,3,4,4,4,5,2,2,2,1,1,20,6.4,3.54545454545455,5,5,5,4,4,2,2,2,3,2,5,3,5,4,4,4,4,3,1,4,2,4,3,5,4,4,2,2,1,4,1,3,4,2,3,2,2,2,1, ,4,2,5,1,4,1,5,3,1, ,2,7,2,1,1,1,1, ,2,blgerki, , , , ,1, , , , ,7,7,6,6,7,6,7,8,2,1,2,1,5,4,2,2,4,2,2,1,2,4,5,5,3,4,3,3,4,2,2,4,4,3,3,4,1,2,1,1,2,4,1,2,5,4,1,1,4,4,2,5,4,2,3,5,1,2,4,4,5,4,5,4,1,4,3.07692307692308,2,5,5,4,4,3,4,3,2,4,5,5,4,4,36.4,36.3,2,36.35,1,-2,9,1,.999959080693105,2.05966256179289,Poland
1996,5,5,3,5,3,4,4,2,5,4,5,2,2,1,4,2,3.5,2,4.77777777777778,3.55555555555556,85,3, ,4.09090909090909,1,5,5,1,2,3,7,6,4,3,1,2,1,2,4,3,7,6,1,1,6,6,2,1,2,6,3,3,1,1,3,1,5,5,3,2,3,11:33:50,2.2,2,12,3,5,5,4,4,5,5,5,5,5,3,3,5,5,4,6,1,32,3.2,3.27272727272727,5,4,4,4,4,3,2,2,2,2,4,4,5,2,4,2,4,3,4,4,1,3,3,2,5,5,1,2,1,2,3,5,5,3,3.07692307692308,2,2,1,1, ,4,2,4,2,8,5,2,2,2,8,2,8,2,1,1,2,1, ,1, , , , , , , , , , ,5,3,5,3,3,2,6,9,3,2,2,1,4,2,2,3,5,2,4,1,2,4,3,2,4,4,4,4,5,2,4,5,1,1,2,3,1,4,2,1,2,2,1,1,4,2,4,2,3,4,4,5,4,3,1,4,5,5,4,2,4,5,4,4,5,4,2.07692307692308,2,4,2,4,4,4,4,2,4,3,2,5,4,4,36.1,36.1,2,36.1,1,0,9,1,.41939358323697,-.0816263837657502,Poland
1975,4,2,2,2,4,3,4,2,2,2,4,3,1,1,3,2,3.44444444444444,4,5,1.66666666666667,70,4.27777777777778, ,2.81818181818182,1,4,2,2,2,4,3,2,5,2,2,6,4,4,1,1,6,7,5,5,2,2,2,7,5,5,6,6,5,2,5,6,5,4,6,2,2,11:33:36,2,2,4,3,5,5,5,5,5,5,5,5,5,5,7,7,6,6,6,6,36,3.8,2.63636363636364,4,3,4,4,4,1,1,1,2,1,4,4,2,1,1,2,1,2,1,1,1,3,2,5,5,5,1,3,2,2,2,4,4,4,3.23076923076923,2,2,1,3,3,4,2,4,4,3,3,5,5,1, ,2,8,2,1,1,1,2,7,1, , , , , , , , , , ,4,4,4,4,4,3,3,10,4,5,5,3,5,2,2,2,4,5,5,1,4,4,4,4,2,4,4,4,2,3,4,2,1,4,3,2,4,5,4,3,4,2,2,2,4,2,2,2,3,3,4,3,2,3,5,5,4,3,4,4,2,4,4,4,4,4,3.07692307692308,3,4,4,4,4,4,3,4,2,3,4,4,4,3,37,35.7,2,36.35,1,1,9,1,.361337033491357,1.24944512293286,Poland
1971,2,3,1,3,2,4,2,3,1,2,3,4,2,1,3,1,2.72222222222222,0,5,2.44444444444444,67,3.55555555555556, ,2.36363636363636,1,2,2,3,5,4,4,1,2,2,2,6,1,1,1,1,5,6,1,3,4,7,2,2,2,1,2,3,3,1,4,5,2,7,7,4,5,11:28:14,2.2,2,7,3,5,5,5,5,5,5,5,5,5,5,7,7,7,7,6,6,43,2.2,2.72727272727273,4,4,4,4,4,2,1,1,1,1,4,2,4,3,4,1,1,4,1,2,1,3,4,5,3,3,3,3,4,5,3,4,3,3,3.53846153846154,2,2,1,3,3,4,4,4,1,6,6,6,4,2,1,2,8,3,6,8,1,1, ,1, , , , , , , , , , ,1,3,2,2,2,2,2,10,2,4,4,2,4,4,2,2,3,5,4,2,3,4,3,5,3,4,3,4,4,3,5,5,1,2,2,1,4,4,3,3,2,2,2,2,3,2,1,4,4,2,4,4,3,1,5,5,3,3,4,1,2,4,2,2,2,2,3.07692307692308,3,4,4,3,4,4,2,2,2,4,4,3,3,3,36.6,36.7,1,36.65,1,2,9,1,-.393398113201619,.497100358277124,Poland
1972,3,2,4,1,2,4,2,2,2,1,2,2,4,2,4,3,1.88888888888889,0,4.44444444444444,2,96,2.72222222222222, ,2.27272727272727,1,1,2,1,1,4,2,1,1,2,1,6,2,2,2,1,2,1,2,2,2,6,1,2,2,2,1,1,2,1,6,4,2,6,6,1,2,11:25:08,3,2,29,3,4,5,4,5,5,5,4,4,4,5,2,6,3,4,2,3,40,1.4,2.09090909090909,2,2,2,2,2,2,2,2,2,2,3,2,2,2,2,2,2,2,2,2,1,5,5,4,5,1,2,5,4,3,5,4,1,4,3.69230769230769,2,2,3,2,2,2,2,2,2,8,6,4,4,2,8,2,8,6,1,3,3,1, ,1, , , , , , , , , , ,1,1,1,1,2,2,2,10,3,2,4,1,5,3,3,4,2,2,4,4,2,3,2,4,3,3,2,4,4,3,4,3,1,1,1,4,2,4,4,2,5,5,1,4,4,4,2,2,4,4,4,3,2,2,4,4,2,3,3,4,4,3,2,2,4,2,1.66666666666667,2,3,3,4,4,4,4,2,4,4,2,5,5,2,36.8,36.9,1,36.85,1, ,9,1,-1.26424635938582,-.370989754787187,Poland
1981,1,1,1,2,3,1,2,2,1,1,2,2,2,2,3,2,2.44444444444444,4,2.11111111111111,2,63,3.38888888888889, ,1.54545454545455,1,2,2,1,2,2,2,2,5,2,4,7,1,1,1,1,7,1,1,2,2,6,2,6,1,1,2,2,2,2,6,6,1,7,7,2,4,11:24:22,2.2,2,8,3,2,2,3,3,1,2,2,2,2,3,4,5,2,2,1,3,32,2.6,2.63636363636364,4,2,4,2,4,1,2,2,2,2,4,2,2,2,2,2,2,2,2,2,2,2,3,5,5,5,1,1,1,5,2,5,3,3,3.15384615384615,2,2,4,1, ,4,4,5,1,5,3,5,4,1, ,2,5,2,1,1,1,2,8,1, , , , , , , , , , ,6,2,2,2,2,5,5,9,3,1,2,1,5,2,1,2,4,2,1,2,1,3,4,1,4,4,3,4,1,3,4,1,1,4,1,5,1,2,4,1,1,2,1,5,3,3,2,3,4,2,4,2,1,3,3,4,3,3,4,2,1,4,3,4,2,2,3.61538461538462,3,4,4,3,3,3,3,4,3,3,3,4,3,4,36.9,37.2,1,37.05,1, ,9,1,-.683680861929686,.323482335664262,Poland
1990,2,2,2,2,2,3,2,2,2,2,2,3,3,2,3,1,3.33333333333333,10,2.77777777777778,2.66666666666667,55,3.88888888888889, ,2.09090909090909,1,2,3,3,4,3,5,2,3,3,3,5,2,4,2,4,5,4,3,4,4,5,3,4,5,5,2,5,3,3,3,3,6,6,5,2,2,11:22:40,2.4,2,32,3,4,2,4,4,3,2,2,2,2,4,3,4,3,2,4,3,28,4.2,2.45454545454545,3,3,3,4,2,2,2,1,2,2,3,3,2,3,2,3,2,4,3,2,1,2,3,4,3,3,2,4,3,1,4,3,2,4,2.92307692307692,1,2,1,1, ,4,2,4,1,1, ,6,6,1, ,2,8,6,1,8,1,1, ,1, , , , , , , , , , ,4,4,4,3,5,5,6,7,3,2,4,3,3,5,2,4,5,4,4,1,2,3,5,5,3,3,2,4,2,3,4,4,3,4,3,2,4,3,3,2,2,4,2,2,3,2,4,4,2,4,4,3,2,2,3,3,4,4,4,3,4,3,4,4,2,2,2.23076923076923,3,2,3,4,4,4,3,2,3,2,3,4,4,2,36.5,36.5,1,36.5,1,-3,9,1,.24522393400013,.844336403502849,Poland
1994,1,2,3,1,2,2,2,1,2,1,2,2,2,3,3,2,4.11111111111111,2,3.66666666666667,4.11111111111111,55,3.27777777777778,8,1.72727272727273,1,4,5,5,2,7,5,4,2,4,2,3,6,4,2,2,7,5,5,5,2,6,1,3,2,2,2,2,3,1,4,4,3,6,7,1,5,11:22:17,2.4,2,62,3,5,3,3,4,3,4,3,4,4,4,4,2,2,2,1,2,24,2.2,3.27272727272727,4,4,4,2,4,2,4,3,2,3,4,5,5,4,5,3,2,5,4,4,1,1,1,3,3,5,1,1,1,3,5,2,5,2,2.53846153846154,2,1,2,1, ,4,4,2,2,4,3,4,3,1, ,2,8,2,1,1,1,1, ,1, , , , , , , , , , ,3,3,1,3,1,3,2,8,2,4,4,4,4,3,2,3,3,5,3,2,2,4,3,1,5,5,3,4,3,4,4,3,1,4,2,1,3,2,2,3,5,4,2,3,5,2,2,1,3,4,5,2,2,1,2,3,4,3,5,3,5,5,4,3,2,5,2,2,3,3,4,4,4,4,3,4,3,3,5,5,2,36.7,36.8,1,36.75,1,-3,9,1,1.05801563043872,.207736987255687,Poland
1981,3,3,3,2,3,3,4,2,2,2,3,3,2,3,2,2,3.05555555555556,0,3.66666666666667,1.55555555555556,70,2.77777777777778, ,2.72727272727273,1,2,2,2,2,5,5,2,2,2,2,6,4,2,4,2,5,4,2,2,2,7,1,2,2,1,2,2,2,2,3,2,2,7,6,2,3,11:21:23,2.4,2,5,3,4,4,4,4,4,3,4,3,3,5,5,7,5,5,5,5,28,3,1.27272727272727,2,1,2,1,1,1,1,1,1,1,2,1,2,2,2,1,2,2,1,1,1,3,3,3,4,4,2,3,3,3,5,3,3,3,3.23076923076923,2,2,1,2,2,2,2,2,1,2,2,2,2,1, ,2,8,6,1,8,1,1, ,1, , , , , , , , , , ,3,3,3,3,3,3,3,9,2,1,2,1,5,5,1,1,5,1,1,1,3,5,5,4,4,5,5,4,3,4,5,3,1,3,1,5,1,1,4,1,3,1,3,3,3,3,3,3,3,2,2,3,3,1,4,3,4,4,4,3,4,4,3,3,3,3,2.07692307692308,2,4,3,4,4,4,4,3,3,4,3,3,4,2,37.1,37.1,2,37.1,1,4,9,1,-.0450588147279379,-.3131170805829,Poland
1998,2,2,3,2,4,3,2,2,2,2,2,2,2,1,3,2,4.83333333333333,8,4.66666666666667,4,77,2.77777777777778, ,2.36363636363636,1,6,5,6,6,6,6,6,6,5,4,2,4,2,5,6,5,5,2,3,2,4,2,3,2,5,3,3,2,2,3,2,3,4,3,2,2,11:17:35,2,2,16,3,5,5,5,5,5,5,2,5,5,3,3,5,2,2,4,3,45,5,4,5,3,5,5,5,2,4,4,3,3,5,4,3,4,3,5,4,5,4,4,2,1,4,4,3,4,1,4,5,4,3,4,5,2,3.38461538461538,2,2,2,1, ,4,4,5,1,8,3,6,4,1, ,2,8,2,1,1,1,2,2,2,MU praca,Rodzina,Studenci,Gimnazjum,Dom,3,5,20,2,2,5,4,5,5,5,6,5,10,2,2,4,2,4,4,3,2,4,4,2,2,3,4,3,4,4,5,4,4,4,3,4,4,2,2,3,3,4,4,4,3,3,3,2,5,4,3,3,2,3,4,4,3,2,2,4,4,4,3,4,4,2,4,4,4,3,4,2.45454545454545,3,3,3,4,5,4,4,2,3,3,4,4,5,2,36.7,36.5,1,36.6,1,3,9,1,1.81275077713169,-.3131170805829,Poland
1975,2,2,2,2,2,2,4,2,2,2,2,3,2,1,2,2,2.38888888888889,0,4.77777777777778,2.44444444444444,69,1.88888888888889, ,2.18181818181818,1,1,1,1,3,5,5,1,1,1,1,7,1,1,1,2,6,4,1,2,2,2,1,2,2,1,2,1,2,1,3,2,2,3,2,2,2,11:15:23,2,2,3,3,5,5,4,5,5,5,5,4,5,5,7,6,5,6,7,5,37,5.6,3.09090909090909,4,4,4,3,4,2,2,2,2,3,4,2,4,2,3,2,2,3,2,2,1,3,3,3,4,5,3,4,4,4,5,4,4,4,3.84615384615385,2,2,1,4,4,3,1,2,1,8,6,8,7,2,5,2,8,2,1,1,2,1, ,1, , , , , , , , , , ,4,6,6,5,6,5,6,10,4,1,4,1,4,5,2,2,4,3,2,1,3,4,4,4,4,3,3,5,2,4,4,2,1,5,2,4,1,2,4,2,4,4,2,2,3,3,2,2,4,2,4,2,2,2,4,4,4,4,5,1,4,4,4,4,3,4,2.07692307692308,3,3,3,4,4,4,4,3,3,4,3,4,4,3,36.2,36.5,2,36.35,1, ,9,1,-.7417374116753,-1.2390798678515,Poland
1970,2,4,1,2,2,2,2,2,2,1,2,3,2,1,1,2,2.44444444444444,0,5,1.44444444444444,81,1.72222222222222, ,2,1,1,1,1,1,1,1,2,1,1,7,7,7,1,1,1,2,7,1,7,1,2,1,1,1,1,1,2,2,1,2,1,1,2,2,1,2,11:11:32,1.8,2,4,3,5,5,5,5,5,5,5,5,5,4,5,5,3,4,3,4,35,3,1.45454545454545,2,1,2,1,2,1,1,1,2,1,2,2,2,2,1,1,1,1,1,2,1,4,4,5,4,2,3,5,4,5,4,4,4,4,4,2,2,1,1, ,4,2,4,2,8,2,6,1,1, ,2,8,6,8,8,3,1, ,1, , , , , , , , , , ,2,3,3,3,3,3,3,8,2,1,4,4,5,4,2,2,2,4,2,5,3,4,4,4,4,4,4,5,2,4,4,2,1,2,1,2,4,2,4,4,2,5,2,2,4,2,4,2,2,3,4,2,4,1,4,5,5,4,4,2,4,5,4,4,5,5,2,2,2,2,5,4,4,4,5,4,3,3,3,4,1,36.5,36.4,1,36.45,1,2,9,1,-.683680861929686,-1.41269789046436,Poland
1990,2,1,2,1,1,2,2,2,3,1,2,1,1,1,2,1,2.44444444444444,2,3.44444444444444,1.66666666666667,92,1.83333333333333, ,1.72727272727273,1,1,1,1,1,4,5,1,1,1,1,7,1,2,1,3,6,6,1,1,1,2,1,1,1,1,1,1,1,2,2,1,2,3,3,7,2,11:10:13,1.2,2,4,3,5,4,3,4,4,2,1,4,4,5,7,7,6,6,4,4,44,6.8,2.45454545454545,4,3,4,3,4,1,1,1,1,1,4,1,2,2,1,4,1,1,2,1,1,2,4,5,5,4,1,3,1,2,1,2,5,2,2.84615384615385,2,2,1,1, ,4,4,4,2,8,5,7,7,1, ,2,1,6,1,5,1,2,5,2,ośrodek interwencyjny,organizacja harcerska, , , ,2,3, , , ,7,7,7,7,7,6,6,9,3,1,3,2,5,4,2,1,5,2,2,2,3,4,4,5,3,5,4,5,3,3,5,4,1,4,1,4,1,2,4,1,5,4,4,1,4,2,4,2,1,2,3,4,4,2,1,4,4,3,4,5,1,3,5,4,2,4,3.15384615384615,4,3,4,4,3,4,3,4,3,2,2,5,3,3,36.56,36.26,2,36.41,1,6,9,1,-.683680861929686,-1.29695254205579,Poland
1978,2,2,1,2,2,1,2,1,1,2,2,3,2,2,2,1,3.05555555555556,1,4.77777777777778,2,90,2.61111111111111, ,1.63636363636364,1,5,2,2,2,5,5,2,2,3,1,6,5,2,2,2,5,2,2,2,2,2,2,2,2,2,2,5,2,2,3,2,2,6,5,2,2,11:05:35,2,2,2,3,5,5,5,5,5,5,4,5,4,5,7,5,2,3,1,2,45,5.2,1.36363636363636,3,1,2,2,1,1,1,1,1,1,1,2,2,3,4,1,1,1,2,2,1,5,2,2,4,5,1,2,2,5,3,4,2,3,3.07692307692308,1,2,1,3,3,1,1,2,2,5,3,3,1,2,4,2,8,6,8,8,3,2,3,1, , , , , , , , , , ,5,5,4,5,6,6,5,11,2,2,3,4,4,2,2,2,2,4,2,2,2,4,4,4,4,4,4,4,3,4,5,3,1,3,1,4,2,2,2,2,2,4,1,1,4,1,4,2,3,3,5,2,1,1,4,3,2,2,2,2,4,4,4,3,2,2,2.33333333333333,3,3,4,4,4,5,4,3,4,3,3,4,4,3,36.4,36.3,3,36.35,1,1,9,1,-.0450588147279379,-.486735103195762,Poland
1990,3,2,1,2,1,2,3,2,1,2,2,4,2,1,2,1,3.61111111111111,1,4.33333333333333,2.88888888888889,79,3.77777777777778,15,1.90909090909091,1,5,5,4,5,3,5,2,5,3,1,3,2,5,2,2,6,6,1,3,3,7,1,1,2,5,5,5,3,3,3,3,5,7,6,2,4,11:03:24,2,2,2,3,5,5,5,5,5,2,2,5,5,4,5,4,6,4,6,5,17,5,2.90909090909091,5,2,4,2,2,1,4,4,4,1,3,4,4,4,3,1,2,2,4,2,2,1,2,4,2,4,2,1,1,1,5,2,2,2,2.23076923076923,2,1,2,1, ,4,4,5, ,8,2,4,2,2,1,2,8,2,1,1,1,1, ,1, , , , , , , , , , ,4,5,5,5,6,4,4,8,2,2,2,4,4,2,1,4,2,4,4,4,2,4,5,5,5,4,4,3,5,4,3,4,3,2,3,2,3,4,4,2,3,2,1,4,5,5,4,4,2,2,5,2,1,1,5,5,3,3,4,5,2,2,4,2,1,4,1.84615384615385,3,2,3,4,4,4,4,3,4,4,2,3,3,2,36,35.9,2,35.95,1,3,9,1,.535506682728197,.728591055094274,Poland
1995,5,4,3,5,4,4,5,3,3,4,4,1,1,2,3,2,3.55555555555556,5,5,3.55555555555556,87,1.94444444444444, ,4,1,5,2,1,5,6,7,5,2,4,2,3,2,2,5,2,5,5,1,2,2,3,1,2,1,1,2,2,2,1,2,2,1,3,3,2,3,11:03:24,1.8,2,11,3,5,5,5,5,5,5,5,5,5,5,5,7,6,6,6,6,19,4,2.72727272727273,4,3,3,4,4,2,2,2,1,3,2,4,4,3,4,3,2,4,4,4,1,3,4,5,4,4,1,2,2,2,4,4,4,2,3.15384615384615,2,2,1,1, ,4,4,4,1,2,1,3,1,1, ,2,3,2,1,1,1,1, ,1, , , , , , , , , , ,5,4,4,4,4,4,4,8,1,1,5,4,4,4,1,3,3,5,2,1,1,5,5,5,3,4,2,5,5,1,5,3,1,1,1,2,3,4,4,3,3,2,1,2,5,5,2,3,2,5,2,5,3,1,5,5,5,4,3,3,4,5,1,1,1,4,3.38461538461538,3,4,4,3,3,4,3,3,2,3,4,4,4,4,36.7,36.7,4,36.7,1,2,9,1,.477450132982584,-1.18120719364721,Poland
1974,2,3,1,3,1,3,2,3,2,1,3,2,3,1,3,2,2.38888888888889,1,4.22222222222222,1,78,2.22222222222222, ,2.18181818181818,1,4,4,1,1,6,2,1,1,2,4,4,2,2,2,1,4,1,1,2,1,4,1,2,1,1,1,2,2,1,6,3,1,4,4,2,2,11:01:48,2.2,2,6,3,4,5,5,5,5,3,4,4,3,4,5,4,5,2,1,1,42,2.2,2.09090909090909,4,2,4,2,3,1,1,1,1,1,3,1,1,1,1,1,1,1,1,1,1,4,3,5,4,5,1,3,4,5,4,5,5,5,4.07692307692308,2,2,1,3,3,2,2,4,1,8,3,6,6,2,3,2,8,2,4,1,3,1, ,2,ćwiczenia, , , , ,7, , , , ,1,2,3,1,2,3,2,10,3,3,3,3,4,4,2,4,4,3,2,2,3,5,5,3,3,4,4,5,3,3,3,3,1,1,2,3,3,3,3,3,2,3,1,1,3,3,2,3,3,4,5,3,2,1,5,3,4,3,3,3,2,4,3,2,3,2,2.4,3,3,4,4,5,5,4,3,3,4,2,5,5,2,36.5,36.6,1,36.55,1,8,9,1,-.7417374116753,-.891843822625775,Poland
1970,2,1,4,1,1,2,3,2,2,2,1,2,3,1,4,2,2.11111111111111,4,5,2.55555555555556,59,2.88888888888889, ,1.90909090909091,1,1,2,1,1,7,1,1,1,1,1,6,1,2,1,1,7,2,1,1,7,4,1,2,1,1,1,1,1,7,3,3,1,6,4,1,7,11:01:10,2.4,2,14,3,5,5,5,5,5,5,5,5,5,4,6,6,3,3,2,3,48,2.4,3.27272727272727,4,4,5,4,5,2,2,2,2,2,4,2,4,2,4,2,1,4,1,3,1,3,2,4,5,4,2,3,5,5,5,4,4,4,3.84615384615385,2,2,1,4,4,4,4,1,1,8,8,2,2,2,8,2,8,6,1,8,3,1, ,1, , , , , , , , , , ,1,3,3,2,2,2,2,10,3,1,2,2,5,4,4,4,4,4,3,1,2,4,3,5,4,4,2,4,3,3,4,3,1,2,3,4,2,2,2,2,4,3,1,1,2,2,2,4,3,3,4,4,2,2,5,4,1,1,3,4,3,4,3,3,3,3,2.15384615384615,3,3,3,4,4,4,4,3,2,4,3,4,4,3,37.1,36.6,1,36.85,1,5,9,1,-1.03202016040337,-.197371732174325,Poland
1982,1,1,1,1,1,3,2,2,1,1,1,2,1,1,2,1,3.5,0,5,2.11111111111111,63,2.61111111111111, ,1.36363636363636,1,4,4,3,5,4,5,2,2,4,3,5,3,2,2,2,6,5,2,2,2,3,2,2,2,2,2,2,2,2,3,2,2,6,6,2,3,10:55:08,1.4,2,3,3,5,5,5,5,5,5,5,5,5,5,7,6,5,5,1,1,63,4,2.63636363636364,4,4,4,3,4,1,1,1,2,1,4,1,3,3,3,1,4,1,1,2,1,4,3,5,4,4,3,4,2,4,5,3,4,4,3.76923076923077,2,2,1,3,3,4,1,4,1,5,5,8,6,1, ,2,8,2,1,1,3,1, ,2,fitness,rodzice szkoła,rodzice przedszkole,wychowawcy,kancelaria,7,7,7,7,5,7,4,4,4,4,4,4,10,3,2,4,2,5,2,3,3,3,4,2,2,2,4,3,3,4,5,3,4,1,4,4,1,1,5,1,4,3,4,4,2,2,3,1,3,4,4,3,2,1,4,5,3,2,3,5,3,4,4,5,3,4,4,4,2,2,4,2.38461538461538,3,3,4,4,4,4,3,3,4,3,3,4,4,3,37.4,38.1,2,37.75,1,0,9,1,.41939358323697,-.486735103195762,Poland
1980,2,2,1,2,1,1,2,2,2,1,2,2,1,1,1,2,2.77777777777778,4,4.88888888888889,1.55555555555556,73,2.05555555555556, ,1.63636363636364,1,5,3,2,1,4,5,1,2,2,1,7,1,1,1,2,6,5,1,2,1,2,1,4,1,1,2,2,1,1,4,2,1,4,4,2,2,10:53:40,1.4,2,7,3,4,5,5,5,5,5,5,5,5,3,4,5,2,2,3,4,25,4.2,1.81818181818182,4,4,4,1,1,1,1,1,1,1,1,1,1,1,4,3,1,1,1,1,1,4,4,4,5,4,2,3,3,5,5,3,5,3,3.84615384615385,2,2,1,2,2,4,2,2,2,4,1,4,3,1, ,2,8,2,2,1,2,2,1,1, , , , , , , , , , ,5,4,4,4,4,5,5,10,2,2,5,2,4,2,2,4,2,5,4,2,1,5,4,5,4,5,2,4,2,3,5,1,1,2,1,1,4,5,4,4,4,5,1,2,2,2,1,3,2,2,4,4,2,2,4,4,5,5,4,2,4,5,5,3,1,4,2.18181818181818,3,3,3,5,4,5,4,2,3,4,3,3,4,3,36.41,36.57,2,36.49,1,3,9,1,-.335341563456005,-1.06546184523864,Poland
1992,2,4,2,4,2,3,4,2,1,3,4,2,4,1,4,3,2.11111111111111,1,4,2.66666666666667,55,1.83333333333333, ,2.81818181818182,1,3,1,1,1,2,4,3,1,2,1,5,1,4,4,1,2,1,1,1,1,3,1,1,1,1,2,2,2,2,3,1,1,6,3,1,1,10:51:27,2.8,2,4,3,5,5,5,5,5,2,2,4,3,4,6,6,4,4,3,4,33,6,3.27272727272727,4,4,4,4,4,2,1,3,4,2,4,4,4,4,3,2,2,2,1,2,1,5,3,4,4,3,2,3,3,2,4,2,2,4,3.15384615384615,2,2,1,1, ,4,4,4,2,5,5,2,2,1, ,2,6,6,1,8,2,1, ,1, , , , , , , , , , ,5,6,6,6,6,6,6,8,2,1,2,1,5,4,2,2,4,2,1,2,2,4,4,5,4,2,2,5,3,2,5,4,1,1,2,4,1,2,4,1,3,5,2,2,2,2,2,2,2,2,4,2,1,1,1,5,5,3,2,2,5,4,2,3,4,1,3.16666666666667,3,4,4,4,3,4,4,3,3,3,4,4,5,4,36.4,36.5,1,36.45,1,-3,9,1,-1.03202016040337,-1.29695254205579,Poland
1971,2,2,2,2,2,4,3,3,3,2,2,2,2,2,3,2,3.38888888888889,5,4,3,75,4, ,2.45454545454545,1,2,2,6,5,4,2,2,2,2,4,6,4,4,2,2,5,2,5,4,4,5,4,4,5,3,3,2,3,2,5,4,5,6,5,4,4,10:50:44,2.2,2,46,3,4,4,4,4,4,4,4,4,4,4,5,4,3,4,4,3,47,3.8,3.18181818181818,4,4,4,4,4,2,2,3,2,2,4,3,3,3,3,3,3,3,3,3,1,3,2,2,3,4,2,4,3,3,4,3,3,3,3,2,2,1,3,3,3,3,2,1,8,5,4,4,1, ,2,6,2,1,1,4,1, ,2,sport,wino,sąsiedzi, , ,7,6,3, , ,4,4,4,4,4,3,3,9,2,3,3,4,4,2,2,3,3,4,3,4,3,3,4,4,4,3,3,3,4,4,3,4,3,3,3,3,4,3,3,4,2,3,2,3,4,4,3,2,3,4,4,3,3,2,3,4,3,3,3,4,4,3,3,3,3,3,2.23076923076923,3,3,3,4,4,4,3,3,4,4,4,4,4,3,36.5,36.4,2,36.45,1,0,9,1,.303280483745743,.960081751911424,Poland
1994,4,4,4,4,4,4,4,4,2,4,3,2,4,3,4,3,2.77777777777778,0,4,3.66666666666667,74,4.05555555555556,2,3.72727272727273,1,3,2,2,3,2,3,1,2,2,1,7,3,5,2,2,5,3,2,3,3,5,6,3,4,5,3,5,3,3,6,6,5,2,4,3,4,10:50:09,3.2,2,8,3,4,4,4,4,4,5,3,4,4,3,4,2,3,2,4,3,22,4.8,3.90909090909091,4,4,4,4,4,4,4,3,4,4,4,4,4,2,4,4,3,4,4,4,1,2,2,2,2,2,1,2,2,2,2,2,2,3,2,2,1,2,1, ,4,4,2,2,3,1,4,2,2,1,2,1,6,1,1,1,1, ,1, , , , , , , , , , ,3,4,5,5,5,5,5,9,1,2,4,2,4,4,2,4,3,4,4,4,2,2,4,4,2,3,2,3,3,2,2,2,4,2,4,1,4,4,4,4,4,4,2,3,3,4,2,4,4,4,4,4,2,2,2,4,4,2,2,4,4,2,3,4,1,5,2.84615384615385,2,3,3,3,3,3,3,4,3,3,3,4,4,2,35.7,36.2,2,35.95,1, ,9,1,-.335341563456005,1.01795442611571,Poland
1983,2,1,3,2,2,4,4,2,2,2,3,2,1,1,3,2,5.38888888888889,5,4,2.77777777777778,63,3.38888888888889, ,2.45454545454545,1,6,7,5,5,7,6,7,6,7,2,1,7,6,6,7,4,6,2,3,3,5,2,4,3,5,4,3,1,1,5,3,3,5,6,3,2,10:46:45,1.8,2,0,3,5,4,4,4,4,4,3,4,4,5,7,5,2,5,7,1,34,6,2.72727272727273,4,4,4,4,4,1,2,1,1,1,4,2,2,3,3,2,5,3,2,3,1,1,5,4,4,2,1,1,1,3,2,1,4,1,2.30769230769231,2,2,4,2,2,4,4,4,1,4,3,2,2,2,1,2,8,6,2,8,2,1, ,1, , , , , , , , , , ,6,6,6,6,6,6,6,10,2,1,4,2,4,4,1,2,4,4,4,1,2,4,4,5,3,5,3,4,3,3,4,2,1,5,3,2,1,4,4,3,4,4,2,4,4,3,3,2,4,4,4,3,2,1,2,4,4,3,3,4,4,4,3,3,1,4,3.76923076923077,4,3,4,3,3,3,2,3,3,2,4,4,3,4,36.9,37.3,2,37.1,1,7,9,1,2.39331627458783,.323482335664262,Poland
1987,3,2,3,2,3,3,4,2,1,3,3,3,4,1,2,2,2.72222222222222,4,3.77777777777778,1.33333333333333,70,2.83333333333333, ,2.63636363636364,1,5,4,1,2,2,5,1,1,3,1,3,1,1,2,4,5,7,1,1,3,4,1,5,1,2,2,2,2,4,6,3,1,5,4,3,2,10:43:59,2.4,2,7,3,5,3,5,5,4,3,3,3,3,5,5,6,2,3,4,1,24,5.2,1,1,1,1,1,1,1,1,1,1,1,1,1,1,1,3,1,1,2,1,1,1,1,2,3,5,3,1,1,2,1,1,1,4,2,2.07692307692308,2,2,1,1, ,4,2,2,2,4,2,7,4,2,1,2,1,6,1,2,1,1, ,1, , , , , , , , , , ,6,6,4,4,6,6,6,9,1,4,4,4,4,3,3,3,3,5,4,1,4,5,5,5,3,5,5,5,2,5,3,2,1,4,4,1,4,5,5,3,4,4,4,2,2,3,2,2,4,3,4,3,2,1,4,5,5,3,5,2,5,4,4,3,3,5,4.23076923076923,5,4,4,3,2,3,2,5,3,2,3,4,3,5,36.7,36.7,2,36.7,1,4,9,1,-.393398113201619,-.255244406378612,Poland
1995,4,5,2,2,3,3,4,2,2,3,2,2,2,1,2,3,5,5,3,3.11111111111111,87,4.27777777777778, ,2.90909090909091,1,2,5,6,6,6,6,6,6,3,6,2,6,7,2,6,7,6,2,6,2,6,2,5,2,2,5,6,2,2,6,6,2,6,6,5,6,10:42:29,2,2,11,3,2,3,3,4,3,3,2,3,4,3,3,3,4,3,3,2,29,3.6,2.72727272727273,4,2,4,4,2,2,2,2,2,2,4,2,4,3,4,4,4,2,2,3,2,3,4,2,4,2,2,3,3,2,3,2,3,3,2.76923076923077,2,2,2,1, ,4,2,5,1,2,2,5,5,1, ,2,8,6,1,8,1,1, ,1, , , , , , , , , , ,6,1,4,5,4,4,6,8,3,4,2,3,5,2,2,3,3,5,2,2,4,4,4,4,4,5,5,4,3,5,5,4,4,2,2,2,3,4,4,2,4,2,2,3,4,2,4,3,3,2,4,2,4,3,2,4,4,4,4,4,2,3,2,2,4,2,3,4,3,2,3,3,4,3,3,3,3,4,4,3,2,36.2,36.4,2,36.3,1,1,9,1,1.98692042636854,1.24944512293286,Poland
1998,3,3,2,3,3,3,3,3,2,3,2,3,2,1,3,2,3.61111111111111,0,3.66666666666667,2.66666666666667,65,3.55555555555556, ,2.72727272727273,1,5,3,4,4,6,4,4,3,2,2,6,2,2,2,4,6,4,2,3,4,4,2,5,5,5,4,5,2,2,4,3,3,6,3,2,2,10:41:26,2.2,2,21,3,4,4,4,5,5,3,2,4,2,4,8,3,2,3,4,6,25,5.6,3.54545454545455,4,3,4,4,4,2,4,4,3,4,3,3,3,3,4,2,3,2,2,2,2,2,2,3,4,3,1,3,2,2,4,2,2,2,2.46153846153846,2,2,2,1, ,4,4,4,2,3,1,4,4,2,1,2,8,2,1,1,2,1, ,1, , , , , , , , , , ,5,6,6,6,5,5,5,9,2,4,5,4,4,2,2,3,2,5,2,2,2,3,4,3,4,4,4,4,4,3,3,3,1,1,2,1,5,5,4,2,2,2,2,2,4,2,3,3,3,3,3,4,3,3,3,4,4,4,5,4,3,3,3,3,3,1,2.5,2,4,3,4,4,5,4,5,3,3,3,5,4,1,35.3,35.9,2,35.6,1,2,9,1,.535506682728197,.497100358277124,Poland
1994,2,3,2,2,2,2,2,2,4,2,4,2,2,1,2,1,3.44444444444444,1,4.11111111111111,2.44444444444444,56,2.5,10,2.45454545454545,1,2,4,4,3,6,5,5,2,3,1,3,2,4,2,6,3,5,2,2,3,6,1,2,2,2,2,2,2,1,2,2,1,6,6,2,1,10:40:30,1.6,2,3,3,5,5,3,5,5,5,2,4,3,3,4,7,5,4,2,5,32,5.8,2.81818181818182,4,4,5,3,5,1,1,1,1,1,5,2,2,2,3,3,2,3,2,3,1,3,3,4,4,5,2,4,4,3,4,2,4,3,3.46153846153846,2,1,1,2,1,4,2,2,2,8,6,5,5,2,2,2,4,2,1,1,3,1, ,1, , , , , , , , , , ,6,5,5,7,7,5,5,10,2,3,2,3,4,2,2,5,3,4,4,2,3,5,3,2,5,5,4,5,5,3,4,4,1,1,1,3,2,4,2,3,3,4,2,4,4,3,1,2,4,2,5,3,2,2,4,3,2,3,5,4,2,5,2,2,4,3,2.58333333333333,3,4,4,4,4,4,4,3,4,4,5,4,5,3,36.61,36.53,2,36.57,1,1,9,1,.361337033491357,-.602480451604337,Poland
1996,2,2,2,2,2,2,3,2,2,2,2,3,2,1,2,2,2.55555555555556,0,3.22222222222222,2.44444444444444,46,2.77777777777778,9,2.09090909090909,1,2,2,1,2,4,2,2,2,2,2,6,2,2,2,2,5,4,2,2,1,6,2,2,2,4,2,2,1,2,2,2,4,6,6,2,2,10:39:28,2,2,2,3,4,3,3,5,4,2,2,3,3,4,5,6,5,5,5,5,29,4,2,3,3,3,2,2,1,1,2,1,2,2,2,4,2,3,2,2,2,2,3,1,3,3,5,5,2,3,3,4,4,4,4,3,3,3.53846153846154,2,1,2,1, ,4,4,5,1,5,3,3,2,1, ,2,8,6,1,8,1,1, ,1, , , , , , , , , , ,4,4,4,4,4,4,3,8,2,2,4,3,5,2,4,2,2,4,3,4,2,3,4,3,3,4,3,4,4,2,4,3,1,2,2,3,3,4,4,2,4,3,2,4,3,3,3,2,2,4,3,3,2,2,2,4,4,3,3,3,5,3,2,3,2,2,2.84615384615385,3,3,4,4,3,3,3,3,3,3,3,4,4,3,37,37,2,37,1,0,9,1,-.56756776243846,-.3131170805829,Poland
1995,3,1,4,2,2,1,4,3,2,2,2,3,2,2,3,2,2.88888888888889,4,4.88888888888889,3.11111111111111,60,3.11111111111111, ,2.36363636363636,1,2,5,1,5,5,2,1,2,6,2,4,1,1,2,1,6,4,2,4,2,6,2,1,2,6,2,2,2,2,2,4,1,4,7,2,5,10:37:56,2.4,2,3,3,5,5,5,5,5,5,4,5,5,3,3,6,2,2,2,2,38,2,3.18181818181818,4,4,4,4,4,1,2,2,2,4,4,4,4,2,4,2,3,4,2,3,1,4,5,3,3,4,2,4,4,3,1,3,4,4,3.38461538461538,2,2,2,1, ,4,4,4,4,8,8,5,5,2,1,2,8,3,1,5,1,1, ,1, , , , , , , , , , ,2,1,3,2,2,2,2,9,3,4,2,2,4,4,3,2,4,2,2,2,3,4,4,2,4,4,2,4,4,3,4,4,4,4,3,4,3,4,3,3,3,2,2,2,3,3,1,2,3,4,4,3,2,1,3,4,4,4,3,3,3,4,3,3,2,3,1.92307692307692,3,3,3,4,4,4,4,3,4,4,3,3,4,3,36.67,36.54,2,36.605,1,1,9,1,-.219228463964778,.0341189646428248,Poland
1996,2,2,4,2,2,5,4,2,2,4,2,3,1,2,2,2,3.33333333333333,34,3.44444444444444,2.55555555555556,85,1.83333333333333, ,2.81818181818182,1,6,6,1,2,3,6,3,2,5,1,3,2,1,2,5,6,5,1,1,1,2,1,1,1,2,1,7,1,1,1,1,2,4,4,1,1,10:34:53,2,2,5,3,4,4,4,3,4,3,2,3,4,4,5,6,4,6,7,7,26,4.4,3.09090909090909,4,4,4,4,4,2,2,2,2,2,4,2,3,2,3,3,2,2,2,4,1,2,3,5,5,4,1,5,2,4,4,1,4,3,3.30769230769231,2,2,2,1, ,4,4,4,4,3,3,2,2,2,1,2,5,2,1,1,1,1, ,1, , , , , , , , , , ,6,5,5,3,5,4,3,9,2,1,3,1,5,4,2,2,5,4,2,1,3,5,4,4,4,5,3,5,3,2,5,3,1,3,1,4,3,4,5,2,4,4,2,2,4,5,2,2,3,4,5,2,3,2,4,4,5,5,5,2,5,4,4,4,2,4,3.66666666666667,3,5,5,4,2,3,3,3,3,4,5,5,5,4,36.6,36.7,2,36.65,1,0,9,1,.24522393400013,-1.29695254205579,Poland
1968,2,2,3,2,2,4,2,2,2,2,2,3,2,1,2,2,3.77777777777778,4,3.22222222222222,3,55,4.55555555555556, ,2.27272727272727,1,4,3,3,4,4,5,4,5,2,5,6,4,2,2,2,6,5,2,5,3,7,2,6,4,2,5,3,3,5,5,5,3,7,7,4,6,10:28:00,2,2,3,3,3,5,3,4,2,3,2,4,3,5,7,7,7,7,7,3,27,4.2,2.18181818181818,3,2,3,3,3,1,1,1,3,1,3,3,3,3,3,3,3,3,2,4,1,3,2,2,5,4,3,4,4,3,4,5,5,4,3.69230769230769,2,2,1,3,3,2,2,3,1,4,1,3,3,1, ,2,3,3,1,4,3,1, ,1, , , , , , , , , , ,7,3,4,3,6,5,6,9,1,1,5,3,4,4,2,3,4,5,3,2,3,4,5,5,4,4,4,2,3,3,3,3,4,3,3,2,4,4,4,3,3,1,2,3,4,4,3,2,3,2,3,2,2,2,4,4,3,3,5,2,3,4,4,3,3,3,2.84615384615385,3,3,3,4,3,3,4,3,3,3,3,4,3,4,36.8,37,2,36.9,1,-3,9,1,.709676331965038,1.5388084939543,Poland
1991,1,2,1,2,2,3,3,1,1,2,2,4,3,1,3,2,2.61111111111111,0,4.44444444444444,3.77777777777778,83,2.44444444444444, ,1.81818181818182,1,2,1,2,5,6,5,1,1,2,1,4,2,2,2,2,6,2,1,2,2,2,2,2,2,2,1,2,1,2,2,2,6,5,5,2,2,10:27:32,2.6,2,20,3,4,5,4,5,5,5,3,4,5,4,5,3,2,2,4,1,39,5.4,2.45454545454545,4,3,4,3,3,1,2,1,1,1,4,4,4,3,3,4,4,4,4,4,1,1,2,2,2,5,2,3,2,2,3,4,1,1,2.30769230769231,2,2,2,1, ,4,4,5,1,8,2,6,6,1, ,2,6,6,8,8,1,1, ,1, , , , , , , , , , ,7,4,5,5,7,6,6,8,3,4,4,4,3,4,1,2,5,5,4,2,2,4,4,4,4,4,2,4,4,4,5,4,2,4,2,4,4,4,2,2,2,4,3,1,4,4,2,2,3,4,4,3,4,2,2,5,5,3,3,3,2,2,4,3,2,3,2.46153846153846,3,4,4,4,4,3,4,3,4,4,4,4,4,2,36.7,36.4,2,36.55,1,-2,9,1,-.509511212692846,-.660353125808625,Poland
1972,1,2,2,2,1,2,2,2,2,2,2,2,2,1,3,1,2.22222222222222,4,5,3.66666666666667,76,2.11111111111111, ,1.81818181818182,1,1,1,2,2,2,2,2,2,1,1,6,2,2,4,2,4,2,2,2,1,2,2,1,2,4,1,2,1,1,2,1,4,3,3,4,2,10:26:52,1.8,2,6,3,5,5,5,5,5,5,5,5,5,4,5,6,3,4,4,4,33,3.4,3.27272727272727,5,4,5,4,5,2,1,2,2,1,5,4,4,4,3,3,4,3,4,4,1,3,4,5,4,5,2,3,2,4,4,2,4,2,3.38461538461538,2,2,1,3,3,2,2,2,1,5,2,5,5,2,1,2,5,6,1,6,3,1, ,1, , , , , , , , , , ,4,4,3,3,3,4,2,10,3,1,3,2,5,5,3,2,3,3,4,1,3,4,3,4,3,5,3,5,5,3,5,5,2,3,2,4,2,4,5,2,4,3,1,3,4,2,2,2,5,3,4,4,3,1,2,5,5,3,3,3,3,5,3,4,2,4,2.84615384615385,2,4,4,4,4,4,4,4,3,2,3,4,3,3,36.79,36.28,2,36.535,1,-4,9,1,-.91590706091214,-1.00758917103435,Poland
1984,3,2,2,2,2,4,4,2,3,2,2,2,2,4,3,2,3.27777777777778,0,4.77777777777778,4,77,2.77777777777778, ,2.54545454545455,1,4,2,2,3,4,2,5,2,5,2,6,4,2,2,2,5,2,5,2,2,6,2,2,2,2,2,2,3,2,2,3,5,2,6,2,3,10:25:06,2.6,2,1,3,4,4,5,5,5,5,5,5,5,5,5,5,3,3,3,3,25,3.4,3.18181818181818,4,4,4,4,4,2,2,2,3,2,4,4,4,4,4,5,4,4,3,4,1,4,4,4,4,4,3,3,3,4,4,3,3,4,3.61538461538462,2,2,1,2,2,1,1,4,2,3,2,3,2,1, ,2,6,6,1,5,1,1, ,1, , , , , , , , , , ,2,4,5,4,2,2,2,9,2,4,3,3,4,4,2,3,3,3,4,2,2,4,4,4,4,3,3,4,3,4,4,3,2,3,2,3,3,4,3,2,3,4,2,2,4,3,4,3,3,2,3,2,2,2,3,4,4,4,3,4,2,2,3,3,2,3,1.92307692307692,4,3,3,4,4,4,4,3,4,4,2,4,4,2,36.4,36.6,1,36.5,1,-5,9,1,.187167384254516,-.3131170805829,Poland
1971,2,3,3,3,1,2,2,3,3,1,1,2,2,1,3,2,2.83333333333333,18,5,2.33333333333333,69,2.22222222222222, ,2.18181818181818,1,2,4,2,2,4,2,4,2,4,2,6,4,2,2,2,4,2,1,2,2,5,2,1,1,2,2,2,2,2,2,2,2,3,4,2,2,10:24:27,2,2,0,3,5,5,5,5,5,5,5,5,5,3,5,5,5,5,5,5,40,3.2,3,3,3,3,3,3,3,3,3,3,3,3,2,2,2,2,3,3,3,2,2,1,4,4,5,5,4,3,4,4,4,4,5,5,4,4.23076923076923,2,2,2,1, ,4,4,5,4,8,5,6,6,2,5,2,5,3,2,2,1,2,2,1, , , , , , , , , , ,5,3,4,3,3,3,4,10,4,1,5,1,5,4,3,3,4,5,3,1,3,4,3,4,4,5,4,5,5,4,4,4,2,2,2,1,1,5,5,1,5,3,4,3,3,3,2,3,3,3,4,3,3,1,1,4,4,3,4,3,4,4,4,4,2,3,2.30769230769231,3,3,3,4,4,4,3,4,3,4,2,4,4,3,37,36.9,1,36.95,1,-5,9,1,-.277285013710392,-.891843822625775,Poland
1976,2,3,2,3,3,2,3,2,3,2,3,2,1,1,4,1,3.38888888888889,7,3.66666666666667,2.44444444444444,56,3.05555555555556,10,2.54545454545455,1,2,4,4,5,5,4,3,2,4,1,4,3,5,3,2,5,4,1,2,2,5,1,2,2,2,2,4,2,3,3,3,2,6,6,5,3,10:08:47,1.8,2,9,3,4,3,4,3,3,4,4,4,4,3,3,5,2,2,3,2,36,3.8,2.72727272727273,4,3,3,3,3,1,2,2,2,4,3,2,4,2,3,2,3,2,2,2,1,2,4,4,5,3,2,3,4,3,5,4,5,4,3.69230769230769,2,1,2,1, ,2,2,5,1,5,4,6,4,2,4,2,6,3,3,5,1,2,3,1, , , , , , , , , , ,3,4,5,3,4,3,3,10,2,1,3,2,5,4,3,3,4,3,2,1,3,4,4,3,4,5,3,5,3,2,4,3,1,3,1,4,2,2,4,3,4,4,2,2,2,2,3,3,2,3,4,3,3,2,2,4,3,4,4,3,2,4,3,3,2,3,2.61538461538462,3,3,4,4,4,2,3,3,4,4,4,4,4,3,36.3,36.3,2,36.3,1,1,9,1,.303280483745743,-.0237537095614629,Poland
1991,2,2,2,2,2,2,2,4,1,2,2,2,2,1,4,2,2.33333333333333,5,4.11111111111111,1.44444444444444,72,5.94444444444444,20,2.09090909090909,1,1,1,1,1,1,1,1,1,7,1,7,1,1,1,7,1,4,4,7,7,1,7,7,7,1,7,7,7,7,7,7,6,4,4,7,7,10:07:31,2.2,2,38,3,5,1,5,5,1,5,5,5,5,5,7,6,7,5,6,3,19,6.2,1,1,1,1,1,1,1,1,1,1,1,1,1,1,2,4,1,1,1,1,1,2,3,2,2,4,5,4,3,2,4,4,3,2,4,3.23076923076923,1,1,2,1, ,4,2,5,1,2,3,1,1,1, ,2,4,2,1,1,1,1, ,1, , , , , , , , , , ,7,6,6,6,7,6,6,8,1,2,4,1,5,1,1,1,1,5,5,1,1,1,5,5,1,1,1,1,1,1,1,1,5,3,4,1,1,5,5,2,5,1,1,4,4,4,5,2,2,4,5,3,1,2,1,4,1,1,1,5,5,1,4,3,1,1,3.53846153846154,3,3,4,3,2,3,3,4,2,4,4,4,4,5,36.4,36.5,3,36.45,1,2,9,1,-.799793961420913,2.98562534906149,Poland
1998,2,4,2,4,2,2,3,3,3,2,2,2,2,1,4,2,4.11111111111111,0,3.66666666666667,2.66666666666667,85,4, ,2.63636363636364,1,4,4,4,4,4,4,4,4,4,4,6,4,4,4,4,4,4,4,4,4,4,4,4,4,4,4,4,4,4,4,4,4,4,4,4,4,10:07:26,2.2,2,16,3,5,4,3,4,5,4,2,3,3,4,8,4,2,2,7,5,23,6,2.36363636363636,2,2,4,2,3,2,2,2,2,2,3,4,2,2,3,4,2,2,2,3,2,3,3,2,3,3,2,3,2,4,5,4,4,3,3.15384615384615,2,2,2,1, ,4,4,5,1,2,1,2,2,2,1,2,7,2,1,1,3,1, ,1, , , , , , , , , , ,5,6,6,6,6,6,6,9,2,2,4,5,4,4,2,3,3,5,2,1,2,4,5,4,3,2,2,3,3,2,3,2,3,2,3,1,4,2,2,3,2,2,1,1,4,2,4,2,2,2,4,4,2,2,2,4,2,2,2,5,5,2,3,3,2,4,2.15384615384615,3,3,3,4,4,4,3,3,4,3,3,4,4,2,36.7,36.7,2,36.7,1,0,9,1,1.05801563043872,.960081751911424,Poland
1991,1,1,1,2,1,2,1,1,2,2,1,2,3,1,2,2,2.66666666666667,9,2.44444444444444,2.33333333333333,79,4.05555555555556, ,1.36363636363636,1,2,1,2,5,2,5,2,2,3,1,6,2,4,1,1,4,4,1,2,3,6,4,4,4,5,4,6,3,3,4,2,5,6,6,3,3,10:05:49,2,2,10,3,4,1,3,4,2,2,2,2,2,5,7,7,6,6,6,6,32,3,3.18181818181818,4,4,4,4,4,2,2,2,3,2,4,3,3,2,3,3,1,2,1,3,1,2,5,2,2,5,1,1,3,5,4,2,4,2,2.92307692307692,2,2,1,1, ,4,4,4,1,4,3,3,3,2,1,2,3,6,2,8,1,1, ,1, , , , , , , , , , ,4,3,3,2,4,3,2,9,1,1,5,1,5,5,5,3,5,1,3,1,5,5,4,5,3,4,4,5,2,2,5,2,1,4,2,5,4,2,4,2,3,4,3,3,4,4,3,2,2,4,4,4,5,2,5,3,4,5,4,4,4,4,4,4,2,4,2.53846153846154,2,2,3,4,3,3,3,2,3,2,3,5,4,3,36.5,36.7,1,36.6,1,-2,9,1,-.451454662947233,1.01795442611571,Poland
1976,2,3,1,3,2,2,3,2,2,2,3,4,2,1,3,2,2.33333333333333,3,4,2.33333333333333,68,2.5, ,2.27272727272727,1,2,2,2,1,2,2,2,2,2,2,6,2,2,2,1,6,2,2,2,2,3,2,2,2,2,2,2,2,2,4,3,2,5,4,2,2,10:03:43,2.4,2, ,3,5,5,4,4,4,3,3,4,4,5,5,5,3,5,6,6,30,2.6,1.54545454545455,2,1,2,2,2,1,1,1,1,1,3,2,2,2,3,2,3,3,2,2,1,3,2,3,2,3,2,3,3,3,3,3,2,3,2.69230769230769,2,2,1,1, ,4,4,2,2,8,4,8,6,1, ,2,8,6,1,2,2,1, ,1, , , , , , , , , , ,3,3,2,2,3,3,3,8,3,2,4,4,2,3,4,4,3,5,5,3,3,4,3,3,3,4,4,4,4,4,4,4,2,2,2,1,4,5,3,4,2,4,2,2,3,2,2,3,3,2,2,4,4,2,4,4,4,4,4,2,4,4,4,3,2,2,3,3,4,3,4,3,3,3,3,3,3,3,3,3,3,36.5,36.8,2,36.65,1,0,9,1,-.799793961420913,-.602480451604337,Poland
1977,1,2,2,1,2,3,2,1,2,1,2,3,2,1,2,1,2.66666666666667,0,4.77777777777778,2,74,2.11111111111111, ,1.72727272727273,1,2,1,1,1,7,3,2,2,1,2,6,6,2,2,1,6,2,1,2,1,2,2,1,1,1,1,2,1,1,4,2,1,4,4,5,3,9:59:24,1.8,2,3,3,4,4,5,5,5,5,5,5,5,5,7,6,4,4,2,4,76,2.4,1.63636363636364,3,2,2,2,1,1,1,1,1,2,2,3,1,1,3,2,2,2,2,2,1,3,3,5,4,4,2,3,2,5,4,3,4,4,3.53846153846154,1,2,1,3,3,4,4,2,2,8,6,6,5,2,8,2,8,6,4,7,1,1, ,2,1,2,3,4,5,7,5,4,7,4,2,3,3,2,2,2,2,11,4,3,3,2,4,2,4,3,3,4,4,4,4,4,3,4,3,5,5,5,4,4,5,4,2,2,2,2,4,4,2,4,2,2,2,3,2,3,2,2,2,3,2,4,2,3,4,4,4,4,4,2,4,4,4,4,2,4,2.53846153846154,3,4,3,3,4,2,3,2,4,4,3,4,4,3,36.3,36.5,2,36.4,1,-5,9,1,-.451454662947233,-1.00758917103435,Poland
1995,2,2,1,2,3,4,2,3,3,2,4,2,2,2,2,2,3.16666666666667,2,4.77777777777778,3.22222222222222,86,1.88888888888889, ,2.54545454545455,1,3,5,2,4,6,2,5,1,2,2,5,2,5,1,1,5,5,1,2,1,2,1,2,1,2,2,2,2,1,2,2,2,3,4,2,1,9:59:04,2,2,10,3,5,5,5,5,5,4,4,5,5,4,4,7,4,5,1,6,35,4.8,3.36363636363636,4,3,4,4,4,4,2,3,2,3,4,3,4,2,3,4,2,4,4,3,1,4,3,4,5,5,3,4,3,3,5,5,3,4,3.92307692307692,2,2,2,1, ,4,2,4,1,8,6,6,6,2,8,2,7,2,1,1,1,1, ,1, , , , , , , , , , ,6,4,5,4,6,5,6,9,4,2,4,3,5,4,3,4,4,4,2,2,3,4,3,4,4,4,4,5,5,5,5,5,1,1,2,4,2,3,3,2,2,4,1,2,4,3,2,2,3,3,3,4,3,2,5,5,5,5,5,3,4,5,4,4,2,4,2.69230769230769,4,4,3,4,4,4,3,3,4,3,4,4,4,3,36.6,36.6,1,36.6,1,-1,9,1,.0710542847632891,-1.2390798678515,Poland
1991,2,2,2,2,2,3,2,2,2,2,2,2,2,2,3,2,2.27777777777778,0,3.33333333333333,3,52,3, ,2.09090909090909,1,2,1,1,2,2,4,1,2,1,2,7,1,1,1,2,5,5,1,2,2,5,2,2,2,1,3,4,3,2,4,3,2,6,6,2,3,9:55:26,2.2,2,5,3,4,4,3,4,4,3,4,2,2,4,5,3,4,5,5,4,23,4.4,2.54545454545455,4,4,2,3,2,2,2,2,3,2,2,4,3,4,4,2,2,2,2,4,1,1,2,4,3,4,1,1,2,4,3,3,3,2,2.53846153846154,2,2,1,2,3,4,2,4,1,4,3,3,1,2,1,1, ,6,1,1,1,1, ,1, , , , , , , , , , ,5,5,4,4,5,4,3,9,1,3,5,4,4,3,2,2,3,5,4,4,2,4,3,4,3,5,3,5,3,2,4,3,2,3,2,2,2,5,4,4,4,4,2,3,4,3,2,2,3,3,2,2,2,2,3,4,2,2,4,3,2,2,3,4,2,4,3.38461538461538,4,4,3,3,3,3,3,4,4,2,3,4,3,3,36.81,36.71,2,36.76,1,7,9,1,-.857850511166527,-.0816263837657502,Poland
1981,2,1,5,1,3,3,1,1,1,1,2,4,3,1,1,1,1.77777777777778,3,3.77777777777778,1.55555555555556,68,3.77777777777778, ,1.90909090909091,1,1,1,1,1,4,1,1,2,1,1,7,2,3,1,1,1,1,2,2,4,7,2,1,2,2,2,2,4,5,7,7,3,7,7,2,2,9:53:28,2,2,3,3,5,3,4,4,4,4,4,3,3,5,5,4,5,5,8,8,25,3.2,2.18181818181818,3,2,3,3,3,2,1,1,2,1,3,2,2,1,1,1,2,2,1,2,2,3,4,3,4,4,3,4,3,4,5,3,4,3,3.61538461538462,2,2,1,1, ,4,2,2,2,1, ,3,3,1, ,2,5,6,3,4,1,1, ,2,ustawienia, , , , ,1, , , , ,3,4,3,3,3,3,3,7,2,1,5,2,4,4,2,3,4,4,3,1,4,4,5,3,4,4,4,4,4,3,3,2,2,2,2,2,2,3,3,2,4,2,2,3,4,3,5,3,3,2,4,3,2,2,2,4,5,5,3,4,4,2,5,3,2,3,2.08333333333333,2,3,2,4,5,4,3,2,4,3,1,2,2,2,36.5,35.8,2,36.15,1,0,9,1,-1.38035945887705,.728591055094274,Poland
1989,2,2,4,3,4,4,4,2,4,2,1,2,2,2,2,2,4.05555555555556,4,3.66666666666667,2.88888888888889,65,4.22222222222222, ,2.90909090909091,1,6,6,5,6,6,6,2,5,5,1,1,3,2,2,5,5,6,1,3,3,7,2,2,5,5,7,5,2,2,6,6,5,2,7,5,2,9:52:51,2,2,2,3,4,4,2,4,4,4,3,4,4,5,6,5,2,4,4,4,27,4.8,2.81818181818182,4,4,4,4,4,1,1,1,2,2,4,4,2,2,4,3,1,2,4,4,1,4,2,4,5,3,2,4,3,2,4,4,2,4,3.30769230769231,2,2,4,1, ,4,4,4,1,5,5,3,3,1, ,2,8,6,1,2,2,1, ,1, , , , , , , , , , ,5,5,4,4,6,5,5,8,2,1,4,1,5,4,2,3,4,5,3,1,3,3,4,4,4,4,3,3,3,2,4,3,3,2,2,2,3,5,5,2,4,4,1,1,4,1,3,4,4,5,4,4,1,2,1,4,4,4,2,4,4,2,3,4,1,2,3.25,3,3,4,4,3,3,3,3,3,4,5,4,5,4,37,36.5,2,36.75,1,-2,9,1,.999959080693105,1.19157244872857,Poland
1973,4,3,1,4,2,4,4,2,4,2,2,2,2,1,1,1,2.77777777777778,2.5,4.11111111111111,3.77777777777778,80,3.55555555555556, ,2.90909090909091,1,1,1,2,2,6,5,2,5,7,2,6,1,1,1,1,5,1,1,2,2,7,2,2,5,2,2,1,2,2,7,6,1,7,7,5,2,9:48:59,1.4,2,1.5,3,5,5,5,5,5,5,2,3,2,4,7,7,5,4,5,5,28,3,2.54545454545455,4,4,4,4,4,1,2,1,1,1,2,4,4,4,5,4,2,5,2,4,1,2,3,4,3,2,1,1,2,4,4,3,4,1,2.61538461538462,2,2,4,2,2,2,2,4,3,1, ,3,3,1, ,2,3,2,1,1,3,2,2,2,Klub ebookow, , , , ,2, , , , ,4,3,3,3,3,3,3,9,1,1,1,3,5,5,5,4,5,5,2,1,2,4,5,4,4,4,4,4,4,3,2,4,1,1,1,1,4,5,5,4,2,2,1,1,1,1,5,1,1,2,5,2,1,1,2,4,4,3,4,3,2,3,4,2,2,2,1.90909090909091,2,3,3,5,5,4,4,2,4,4,2,4,3,2,36.9,36.5,3,36.7,1,6,9,1,-.335341563456005,.497100358277124,Poland
1971,2,1,3,2,2,2,3,2,2,1,2,4,2,1,2,2,2.83333333333333,2,4,3.55555555555556,75,2.88888888888889, ,2,1,2,2,2,2,5,3,2,3,2,2,6,1,2,1,2,6,5,3,5,2,3,2,2,5,3,3,3,2,2,3,3,3,2,3,3,3,9:43:07,2.2,2,24,3,5,4,4,4,3,5,3,4,4,4,5,5,5,4,6,2,32,2.4,3.18181818181818,5,4,5,4,5,1,2,1,2,2,4,4,4,4,4,4,2,4,2,4,1,2,3,5,2,3,2,2,2,3,3,2,4,2,2.69230769230769,2,2,1,3,3,4,2,2,1,2,2,5,2,2,8,2,7,2,1,1,1,2,2,1, , , , , , , , , , ,1,3,3,2,2,2,2,11,3,2,4,2,5,4,2,2,2,5,2,2,4,4,4,4,4,2,2,4,5,4,4,5,2,2,2,2,3,5,2,2,4,5,1,2,2,4,1,2,2,2,5,2,2,2,4,5,2,2,2,4,2,4,4,4,2,4,3,4,3,4,4,4,3,3,3,4,3,3,4,3,4,36.1,36.9,2,36.5,1,0,9,1,-.277285013710392,-.197371732174325,Poland
1996,2,2,2,2,3,4,2,2,1,2,2,4,2,1,1,2,5.22222222222222,1,4.11111111111111,3.88888888888889,65,3.05555555555556, ,2.18181818181818,1,6,6,6,6,6,6,5,3,6,5,2,6,6,5,6,6,5,3,4,2,6,2,4,3,3,2,2,2,2,2,2,4,5,6,2,2,9:40:36,2,2,0,3,4,4,4,3,5,4,3,5,5,5,7,7,7,6,8,8,31,6.4,4,5,4,4,5,5,3,3,3,5,3,4,4,4,4,4,4,4,3,3,5,2,2,5,4,3,5,2,3,3,3,5,3,3,4,3.46153846153846,2,1,2,1, ,4,4,4,4,5,5,6,6,1, ,2,8,2,1,1,1,1, ,1, , , , , , , , , , ,7,6,6,6,7,7,6,8,3,1,3,1,4,5,2,3,4,4,2,1,4,4,4,4,4,3,3,4,4,4,4,4,2,3,2,4,1,3,1,2,5,4,2,3,4,2,4,2,3,4,4,3,2,1,2,5,4,4,4,2,4,4,4,4,5,3,2.83333333333333,2,3,4,4,3,3,3,2,4,4,4,4,5,4,36.2,36.1,2,36.15,1,1,9,1,2.21914662535099,-.0237537095614629,Poland
1996,4,4,4,4,5,3,5,4,3,3,5,2,3,2,4,3,4.83333333333333,24,3,3.55555555555556,55,3.83333333333333,4,4,1,7,7,5,7,7,7,2,5,4,1,1,2,4,6,7,6,7,2,4,3,3,2,7,2,4,3,4,6,2,3,3,5,5,5,5,3,15:40:12,2.8,2,4,2,3,3,3,4,3,2,2,4,3,5,7,6,3,3,2,2,21,5.6,3.81818181818182,5,5,5,5,5,2,4,3,1,2,5,4,4,3,4,2,3,4,4,4,1,2,3,1,3,4,3,3,1,1,2,4,4,2,2.53846153846154,2,1,2,1, ,4,4,4,1,4,1,4,3,1, ,2,4,2,1,1,1,1, ,1, , , , , , , , , , ,6,6,6,5,6,5,5,8,1,4,5,2,4,2,1,2,2,5,5,5,2,2,5,5,1,2,2,5,3,3,4,4,3,4,1,1,5,5,3,2,5,5,1,3,4,5,1,1,5,5,4,5,1,1,2,4,1,2,3,5,1,4,2,2,1,5,4.07692307692308,4,5,5,3,3,3,3,4,2,4,5,4,3,4,36.6,36.8,2,36.7,1,-3,9,1,1.81275077713169,.786463729298562,Poland
1979,2,2,5,1,2,2,2,2,2,2,2,4,2,1,2,1,2.55555555555556,3,3.33333333333333,4.11111111111111,88,4.94444444444444, ,2.18181818181818,1,1,2,1,2,2,5,2,1,2,5,6,2,2,2,1,6,2,2,7,6,2,6,6,7,2,3,1,6,7,6,7,2,7,6,2,6,11:42:31,2,2,13,2,2,4,4,4,3,3,2,4,4,5,7,7,8,8,8,5,37,6.8,4.27272727272727,5,5,5,5,5,3,4,4,4,2,5,5,5,4,4,4,3,3,5,4,1,2,1,4,2,2,1,2,4,3,2,4,1,2,2.30769230769231,2,2,1,2,2,4,4,4,1,3,1,8,8,2,1,2,5,6,1,8,2,1, ,1, , , , , , , , , , ,7,7,7,6,7,7,6,10,3,1,1,2,5,4,3,1,5,1,1,1,4,4,4,2,4,4,4,3,2,4,2,3,4,2,4,5,1,1,5,1,1,4,2,3,4,2,4,3,2,2,5,2,4,2,5,5,5,2,2,4,4,4,4,5,1,5,3.84615384615385,2,4,4,3,3,2,3,5,1,2,3,5,4,5,36.6,36.9,2,36.75,1,0,9,1,-.56756776243846,1.94391721338431,Poland
1995,3,2,4,1,2,2,3,3,2,2,2,3,1,2,3,2,2.66666666666667,2,4.77777777777778,2.33333333333333,68,3.38888888888889, ,2.36363636363636,1,2,2,2,2,5,2,2,4,1,1,6,2,2,2,4,3,5,1,4,2,1,2,3,4,2,7,2,2,2,4,5,2,5,7,5,2,11:18:25,2.2,2,6,2,5,4,5,5,5,5,4,5,5,5,5,4,4,2,6,4,54,3,2.27272727272727,3,3,3,4,4,1,1,2,1,1,2,2,3,4,2,1,1,3,1,4,2,3,3,4,4,4,1,3,2,1,4,4,5,2,3.07692307692308,2,2,2,1, ,4,2,5, ,5,5,5,5,1, ,2,3,6,2,8,1,2,1,2,praca,uczelnia,rodzina,trening,przyjaciele,15,2,10,5,4,3,3,3,3,4,2,3,9,2,4,2,1,5,2,2,2,3,5,2,2,2,4,5,4,5,3,3,4,4,3,4,4,2,2,2,4,3,2,2,2,5,4,1,3,3,3,2,1,3,2,1,2,2,4,5,5,3,3,5,4,4,4,5,5,3,5,3.11111111111111,4,2,3,5,5,5,2,1,5,3,4,4,3,2,36.9,37,2,36.95,1,0,9,1,-.451454662947233,.323482335664262,Poland
1993,2,4,2,3,2,2,2,2,4,3,2,3,1,1,4,1,3.83333333333333,5,2.77777777777778,3.33333333333333,68,2.33333333333333, ,2.54545454545455,1,2,4,2,6,4,7,4,3,4,2,6,5,2,2,2,7,6,1,5,2,5,2,2,2,2,2,2,1,2,2,2,2,3,3,2,1,11:04:21,2,2,12,2,2,2,3,4,3,2,2,3,4,5,5,4,2,4,4,3,24,4,3.27272727272727,4,4,4,4,4,2,2,2,3,3,4,4,4,2,4,4,2,4,2,4,1,1,2,2,1,4,1,1,1,1,2,1,2,1,1.53846153846154,2,2,2,1, ,4,4,4,1,5,2,4,4,1, ,2,5,6,1,2,1,1, ,1, , , , , , , , , , ,4,4,3,3,7,3,2,8,2,1,5,3,5,4,2,2,4,4,4,1,3,5,4,5,4,5,2,4,3,2,4,2,2,3,3,3,3,2,2,2,4,2,2,4,3,2,5,4,3,3,3,3,2,1,2,4,4,5,5,5,5,5,5,5,1,4,3.38461538461538,4,3,5,4,3,3,3,4,3,3,4,4,4,3,36.5,36.7,1,36.6,1,0,9,1,.767732881710652,-.7760984742172,Poland
1991,1,2,4,2,2,4,4,2,2,2,1,4,1,1,1,1,2.61111111111111,6,2.22222222222222,3.22222222222222,78,4.27777777777778, ,2.36363636363636,1,1,1,2,1,6,6,1,1,1,1,7,1,6,1,1,7,1,2,6,2,7,2,5,2,1,1,2,6,2,7,6,6,7,7,2,6,11:03:26,1.6,2,3,2,1,3,1,4,2,2,1,4,2,4,5,7,6,6,6,6,30,5.8,3.18181818181818,2,4,5,4,5,2,2,2,2,2,5,1,5,5,5,2,1,4,1,5,1,1,1,1,1,2,1,1,1,1,1,1,1,1,1.07692307692308,2,2,1,2,2,4,4,4,1,7,4,4,3,2,1,2,8,6,1,4,1,1, ,1, , , , , , , , , , ,7,5,5,5,7,7,7,10,2,1,5,4,4,4,4,4,4,5,5,2,5,5,2,2,5,5,5,5,5,5,5,5,1,1,1,4,4,4,4,2,4,5,2,2,5,1,4,5,2,2,5,2,5,1,5,5,5,5,5,1,1,5,5,5,1,5,3.76923076923077,5,4,5,3,2,4,4,5,2,4,4,4,4,5,36.9,36.5,2,36.7,1,0,9,1,-.509511212692846,1.24944512293286,Poland
1992,2,3,4,2,2,3,4,3,2,3,2,3,2,1,3,2,2.22222222222222,1,3.44444444444444,2.66666666666667,70,2.22222222222222, ,2.72727272727273,1,1,1,1,1,4,3,1,2,2,1,7,2,2,2,1,5,3,1,2,2,4,2,1,1,1,2,2,1,2,2,2,2,6,4,2,2,10:59:13,2.2,2,12,2,4,4,4,4,4,3,2,3,3,5,5,6,6,6,6,6,28,4.4,3,4,4,3,2,3,2,3,4,2,2,4,3,3,2,3,2,2,3,2,4,1,2,3,3,4,4,2,3,3,4,4,3,4,2,3.15384615384615,2,2,1,1, ,2,2,4,1,6,3,3,3,2,1,2,5,2,1,1,2,1, ,2,uniwersytecka, , , , ,5, , , , ,5,4,4,5,4,5,6,9,2,5,5,3,3,5,1,3,3,5,3,1,3,4,4,4,4,5,4,5,2,3,4,4,2,3,1,1,4,4,2,4,3,2,2,3,3,3,2,2,4,4,4,3,4,1,4,3,4,2,4,3,5,3,4,3,2,3,2.61538461538462,2,3,4,4,4,4,3,3,3,3,4,5,4,3,38,38,1,38,1,1,9,1,-.91590706091214,-.891843822625775,Poland
1994,1,2,4,2,4,2,4,3,2,3,1,2,3,2,2,4,3.72222222222222,0,4.88888888888889,3.44444444444444,48,4.05555555555556,1,2.54545454545455,1,3,3,5,5,2,2,2,3,6,3,3,5,5,4,5,2,5,4,4,4,6,5,4,2,5,5,2,3,3,6,2,3,4,5,6,4,10:48:12,2.6,2,4,2,5,5,5,5,4,5,5,5,5,5,8,3,6,4,3,4,27,3,2.81818181818182,4,4,4,4,4,2,2,1,1,1,4,2,4,4,4,4,4,4,1,4,2,4,3,3,2,2,2,3,4,2,5,4,4,3,3.15384615384615,2,1,2,1, ,3,3,5,1,4,5,4,3,1, ,2,8,2,2,1,3,1, ,1, , , , , , , , , , ,5,3,4,3,3,2,4,8,2,1,3,4,4,5,1,2,4,4,4,2,4,4,4,3,4,4,3,4,4,3,4,4,4,4,2,1,3,4,4,4,5,5,2,5,5,3,1,1,4,2,4,3,1,1,4,4,4,3,4,2,5,5,5,5,4,5,4,4,5,5,5,3,3,3,4,3,4,5,5,5,3,37.1,36.6,2,36.85,1,8,9,1,.651619782219425,1.01795442611571,Poland
1991,4,4,4,4,3,2,4,2,4,2,2,2,1,1,3,2,3.33333333333333,15,3.77777777777778,1.44444444444444,68,3.55555555555556, ,3.18181818181818,1,4,5,1,4,4,6,2,3,2,2,6,1,1,1,5,6,6,1,5,3,6,2,3,2,2,2,2,3,2,3,2,6,7,7,3,4,10:14:52,1.8,2,19,2,4,4,4,4,4,4,5,3,2,5,5,6,4,4,2,4,33,3.6,2.36363636363636,3,4,4,4,2,1,1,1,3,1,2,2,2,1,2,1,1,2,1,1,2,2,3,2,3,3,2,1,1,2,2,1,4,1,2.07692307692308,2,2,3,1, ,4,2,2,1,1, ,5,5,1, ,2,8,6,1,8,1,2,6,1, , , , , , , , , , ,7,2,2,5,4,5,7,8,4,2,2,1,5,4,1,2,4,3,2,1,3,5,5,4,3,4,4,4,4,4,3,2,3,3,3,4,1,2,5,2,3,2,2,4,3,4,1,2,5,4,4,4,3,1,4,4,4,3,2,5,5,2,5,3,1,2,3.76923076923077,3,4,4,3,1,3,2,4,2,3,4,4,4,3,36.92,36.84,2,36.88,1,-2,9,1,.24522393400013,.497100358277124,Poland
1979,2,1,3,1,2,2,2,3,2,2,1,2,2,3,3,4,2.94444444444444,21,3.77777777777778,1.55555555555556,88,2.38888888888889, ,1.90909090909091,1,7,1,1,1,2,6,1,1,5,5,7,1,5,1,1,5,2,1,5,2,3,2,2,2,1,3,1,2,2,2,1,2,5,5,1,2,10:04:41,2.8,2,15,2,4,4,3,5,5,3,4,3,3,5,7,6,3,3,4,1,51,2.8,1.81818181818182,4,1,4,1,3,1,1,1,1,1,2,1,1,1,1,4,3,1,1,1,1,3,5,5,5,4,5,4,4,4,5,5,5,5,4.53846153846154,2,2,1,2,2,4,4,4,4,5,3,5,5,2,8,2,8,6,1,8,3,2,4,1, , , , , , , , , , ,3,2,2,4,3,3,2,11,4,5,3,2,5,5,3,2,5,2,1,2,2,3,4,4,3,2,5,5,2,2,2,4,1,3,4,3,2,3,4,1,2,2,4,1,5,2,1,2,3,2,2,3,2,1,2,5,4,2,1,3,5,4,4,4,5,3,3.07692307692308,2,5,4,4,4,4,3,3,4,3,5,5,3,4,36.7,37,1,36.85,1,0,9,1,-.161171914219165,-.718225800012912,Poland
1991,3,4,4,2,2,2,3,4,2,2,2,2,2,2,3,2,4.66666666666667,1,2.44444444444444,4.11111111111111,86,3.05555555555556, ,2.72727272727273,1,5,5,5,4,5,7,5,5,4,5,3,3,4,4,5,5,7,3,3,3,4,3,3,2,2,4,2,3,2,5,3,1,6,3,2,4,9:31:03,2.2,2,2,2,3,3,4,3,3,2,2,1,1,5,7,5,6,6,6,6,25,6.8,3.90909090909091,5,4,5,5,5,2,3,2,4,3,5,4,5,4,4,4,3,4,4,5,1,4,3,4,5,5,3,3,2,3,3,5,5,4,3.76923076923077,2,2,1,1, ,4,1,2,1,1, ,4,4,1, ,2,8,6,2,7,1,1, ,1, , , , , , , , , , ,6,7,7,7,7,6,6,7,2,2,4,4,4,4,3,4,4,4,4,2,2,4,5,3,3,3,3,4,2,4,4,2,1,3,2,2,4,4,4,4,3,4,2,4,4,2,4,2,3,3,3,3,3,2,3,4,4,3,4,4,4,4,4,4,2,5,3.61538461538462,4,5,4,4,2,3,2,3,3,4,5,5,4,4,36.4,36.8,2,36.6,1,1,9,1,1.63858112789485,-.0237537095614629,Poland
1964,1,1,3,3,3,2,3,2,3,1,1,3,1,1,3,2,4.11111111111111,0,4,3.11111111111111,79,3.61111111111111, ,2.09090909090909,1,4,4,4,4,4,4,4,4,4,4,4,4,4,4,4,6,4,4,4,2,4,4,4,4,1,4,4,2,4,4,4,4,4,4,4,4,7:43:00,2,2,0,2,4,4,4,4,4,4,4,4,4,3,4,4,2,3,2,2,39,3.6,3.54545454545455,4,4,4,4,4,3,3,3,4,3,3,4,3,3,3,4,2,3,3,3,1,3,3,3,3,4,3,3,4,3,5,4,4,2,3.38461538461538,1,2,1,2,2,4,4,2,2,1, ,4,3,1, ,2,8,6,8,8,3,1, ,1, , , , , , , , , , ,3,4,4,4,4,2,3,8,2,1,4,3,3,3,3,3,3,3,3,3,3,4,2,4,4,3,3,3,3,3,3,3,3,3,3,3,3,3,3,3,3,3,2,3,3,3,2,3,3,3,3,3,3,3,3,3,3,2,3,3,3,3,3,3,3,3,2.23076923076923,2,3,4,4,4,4,3,2,4,3,3,3,4,3,36.6,36.9,2,36.75,1,8,9,1,1.05801563043872,.554973032481412,Poland
1975,3,4,4,2,4,4,4,4,4,1,1,2,4,1,4,2,4.27777777777778,0,4,4.11111111111111,84,2.72222222222222, ,3.18181818181818,1,5,6,1,5,7,6,5,6,2,1,7,6,6,1,1,6,4,2,6,2,1,3,4,1,1,2,2,2,2,6,2,2,2,6,3,2,9:52:36,2.6,2,6,1,4,4,4,4,4,4,4,4,4,4,7,4,3,3,3,3,38,4.2,4,4,4,4,4,4,4,4,4,4,4,4,5,5,4,4,4,4,4,3,4,1,2,2,2,2,4,2,4,2,2,4,2,2,4,2.61538461538462,2,2,1,1, ,4,4,1,1,8,6,8,8,2,5,2,8,6,1,3,1,1, ,1, , , , , , , , , , ,2,5,4,4,4,4,4,9,4,1,1,1,5,4,4,4,2,1,1,1,2,5,2,3,4,5,5,5,5,4,5,4,2,2,1,1,1,3,2,2,2,1,2,4,2,2,2,2,4,4,4,4,4,1,5,5,5,5,5,1,4,4,4,5,5,5,2.84615384615385,2,3,3,3,3,3,2,3,3,4,3,3,3,3,36.74,36.51,2,36.625,1,2,9,1,1.23218527967556,-.370989754787187,Poland
 , , , , , , , , , , , , , , , , , , ,4, ,68, , , , , , , , , , , , , , , , , , , , , , , , , , , , , , , , , , , , , , , , ,23:10:34, , , , ,4,4,4,4,4,4,4,4,4,5,5,7,5,4,5,5,34, , , , , , , , , , , , , , , , , , , , , , , , , , , , , , , , , , , , , , , ,2,1, ,4,4,4,1,8,2,4,4,2,1,2,8,6,8,2,2,2,1,1, , , , , , , , , , , , , , , , , ,10,2,2,3,2,5,4,2,3,5,3,4,2,3,4,4,4,3,4,2,4,4,3,4,4,3,3,2,4,3,3,4,2,4,4,2,4,4,4,2,3,4,4,4,4,3,2,4,4,4,4,4,3,3,3,3,3,3,3, , , , , , , , , , , , , , , ,36.5, , ,36.5,1,-2,9,1, , ,Poland
 , , , , , , , , , , , , , , , , , ,14, , ,91, , , , , , , , , , , , , , , , , , , , , , , , , , , , , , , , , , , , , , , , ,18:02:58, , ,0, , , , , , , , , , , , , , , , , ,27, , , , , , , , , , , , , , , , , , , , , , , ,5,5,5,5,4,5,5,4,5,5,5,5,5,4.84615384615385, , ,2,1, ,4,2,5,1,6,5,5,5,1, ,1, ,2,1,1,3,1, ,2, , , , , , , , , , , , , , , , , ,7,2, , , , , , , , , , , , , , , , , , , , , , , , , , , , , , , , , , , , , , , , , , , , , , , , , , , , , , , , , , , , , , , , , , , , , , , , ,36.8, , ,36.8,1,1,9,1, , ,Poland
 , , , , , , , , , , , , , , , , , , , , ,75, , , , , , , , , , , , , , , , , , , , , , , , , , , , , , , , , , , , , , , , ,12:09:08, , , , , , , , , , , , , , , , , , , , ,0, , , , , , , , , , , , , , , , , , , , , , , , , , , , , , , , , , , , , , , , , , , , , , , , , , , , , , , , , , , , , , , , , , , , , , , , , , , , , , ,0,0, , , , , , , , , , , , , , , , , , , , , , , , , , , , , , , , , , , , , , , , , , , , , , , , , , , , , , , , , , , , , , , , , , , , , , , , ,36, , ,36,1,7,9,1, , ,Poland
 , , , , , , , , , , , , , , , , , , , , ,81, , , , , , , , , , , , , , , , , , , , , , , , , , , , , , , , , , , , , , , , ,9:34:19, , , , , , , , , , , , , , , , , , , , ,0, , , , , , , , , , , , , , , , , , , , , , , , , , , , , , , , , , , , , , , , , , , , , , , , , , , , , , , , , , , , , , , , , , , , , , , , , , , , , , ,0,0, , , , , , , , , , , , , , , , , , , , , , , , , , , , , , , , , , , , , , , , , , , , , , , , , , , , , , , , , , , , , , , , , , , , , , , , ,37.6, , ,37.6,1,5,9,1, , ,Poland
1989,1,5,1,2,1,1,1,1,4,1,1,3,3,1,4,1,2.44444444444444,0,4.11111111111111,2.88888888888889,73,3.77777777777778, ,1.72727272727273,1,1,1,1,3,1,3,3,3,7,1,5,1,1,3,3,1,3,3,6,5,3,7,1,3,3,1,1,2,2,7,4,3,7,7,1,5,11:47:25,2.4,2,36,4,5,3,5,5,5,3,3,5,3,1,2,1,1,1,3,1,41,6.5,2.27272727272727,4,3,2,3,4,1,1,1,2,2,2,3,4,3,4,2,3,2,3,2,2,5,5,1,1,5,5,5,5,5,5,5,5,5,4.38461538461539,1,2,3,1, ,2,2,5,1,8,8,3,3,2,1,2,8,3,1,8,8,1, ,1, , , , , , , , , , ,4,7,7,7,7,7,7,9,3,4,1,2,5,3,3,3,2,1,2,3,4,5,4,3,3,2,1,3,4,3,2,1,1,1,3,3,3,4,1,5,2,2,1,3,5,1,2,1,1,1,5,3,3,2,3,4,3,5,2,2,1,1,2,3,3,1,1.69230769230769,2,2,3,2,1,1,1,2,1,1,3,5,1,2,36.4,36.1,6,36.25,1,13,8,1,-.500058061327065,.920947935468287,Portugal
1980,1,1,1,2,1,1,1,1,5,1,1,2,5,3,3,1,1.72222222222222,0,4.22222222222222,1.44444444444444,73,2.27777777777778, ,1.45454545454545,1,1,1,1,1,3,7,1,1,1,1,2,1,1,3,1,1,3,1,1,1,1,4,1,1,1,4,4,1,1,4,4,1,2,2,4,4,11:39:53,2.8,2,13,4,5,5,5,5,5,4,4,4,1,5,3,5,2,3,2,2,33,5.5,1.63636363636364,4,1,2,1,3,1,1,1,2,1,1,1,2,1,3,1,1,2,1,1,1,5,4,3,4,2,5,4,5,5,5,5,5,4,4.30769230769231,1,2,1,1, ,4,1,4,4,4,1,7,1,1, ,1, ,3,1,8,1,1, ,2,COPELABS, , , , ,8, , , , ,3,7,7,7,5,4,4,7,1,4,2,5,2,4,4,3,5,3,2,3,4,4,3,4,4,1,1,1,1,3,3,3,4,2,1,3,4,4,4,5,3,3,1,1,5,4,4,2,2,2,4,3,2,2,3,4,4,4,4,2,3,3,3,3,4,3,2.07692307692308,2,2,3,2,2,2,2,2,2,2,2,4,2,2,36.4,36.5,6,36.45,1,13,8,1,-1.27202269350072,-1.14213630424888,Portugal
1971,1,2,2,3,2,1,2,1,2,1,2,3,5,3,3,3,2.66666666666667,0,4.66666666666667,2,82,1.72222222222222,20,1.72727272727273,1,2,2,2,2,3,2,2,2,1,2,6,3,3,2,2,3,6,3,5,1,2,1,2,5,2,1,2,1,1,1,1,2,1,1,1,1,11:01:58,3.4,2,0,2,5,5,5,5,5,4,4,5,4,2,2,2,2,2,2,2,38,1.66666666666667,3.18181818181818,4,3,4,3,4,2,4,3,3,1,4,1,2,2,3,1,1,2,2,4,1,1,4,2,2,5,1,5,4,3,3,3,4,3,3.07692307692308,1,1,1,3,3,4,4,4,2,2,2,4,3,1, ,1, ,1, , ,2,1, ,2,Político,Social, , , ,10,6, , , ,3,1,1,1,2,2,3,7,1,1,4,3,5,4,3,5,1,1,1,3,4,4,4,4,4,2,2,1,5,3,1,1,3,3,3,4,4,4,4,4,4,4,1,3,4,3,3,2,2,4,4,3,3,1,3,4,3,3,3,4,4,4,4,3,4,1,2.30769230769231,2,3,3,2,2,2,2,3,2,1,3,5,2,3,36,36,5,36,1,15,8,1,-.26253048219671,-1.9062415782182,Portugal
1997,3,3,2,1,3,2,2,3,2,5,2,3,2,3,5,3,3.22222222222222,0,4.66666666666667,3.66666666666667,42,4.33333333333333, ,2.54545454545455,1,3,3,3,3,3,3,3,3,5,3,5,3,3,3,3,3,3,3,3,5,3,5,3,3,3,5,5,5,5,5,5,3,5,5,5,5,11:37:32,3.2,2,0,2,5,5,5,5,5,4,4,5,4,4,7,7,6,7,7,7,34,5.66666666666667,3.54545454545455,5,4,5,5,3,3,3,4,3,1,3,4,4,3,4,4,3,4,3,4,2,4,1,5,4,5,2,3,2,2,5,4,5,1,3.30769230769231,2,2,2,1, ,4,4,5,1,4,4,7,5,1, ,2,8,3,1,8,2,1, ,1, , , , , , , , , , ,3,7,7,7,5,5,4,8,3,2,4,3,5,3,2,3,3,3,2,1,5,4,4,3,3,1,1,1,4,1,4,4,2,4,4,2,2,4,3,4,5,5,1,2,4,4,4,2,4,5,3,2,2,2,2,4,2,2,3,3,3,4,2,2,1,4,3.30769230769231,3,3,4,3,3,3,3,4,3,3,4,4,3,4,36.7,36.6,6,36.65,1,13,8,1,.331288465629181,1.68505320943761,Portugal
1961,1,1,1,2,2,1,1,2,2,1,1,3,1,3,2,3,1.83333333333333,0,4.44444444444444,1.11111111111111,91,3.11111111111111, ,1.36363636363636,1,1,1,1,1,1,1,1,2,1,1,1,5,2,5,1,5,2,1,2,4,7,1,2,2,2,4,4,1,4,3,1,1,7,6,4,1,11:34:25,2.4,2,0,1,5,5,5,5,5,5,3,4,3,4,5,7,2,2,2,3,35,5.16666666666667,1.18181818181818,3,1,1,1,1,1,1,1,1,1,1,1,1,1,1,2,1,1,1,1,1,4,5,2,3,5,5,4,4,5,5,3,4,4,4.07692307692308,1,2,1,3,3,2,2,4,1,8,3,8,3,1, ,1, ,1, , ,4,2,3,2,Livre, , , , ,7, , , , ,6,5,6,4,5,5,6,8,1,1,2,2,4,5,3,5,4,3,2,3,4,3,3,4,3,1,4,1,2,2,3,4,2,2,4,4,3,4,4,4,5,4,5,4,4,4,5,2,5,5,5,1,4,1,5,2,4,4,5,4,4,4,4,3,2,4,2.69230769230769,4,3,2,3,2,2,3,2,4,3,3,3,2,2,36.6,36.4,7,36.5,1,9,8,1,-1.15325890393554,.00402160670510241,Portugal
1994,2,2,1,3,2,2,1,1,2,1,1,3,5,3,5,2,2.05555555555556,0,4.77777777777778,1.55555555555556,42,2.94444444444444,12,1.63636363636364,1,2,2,3,3,2,3,3,2,5,1,1,3,1,1,2,1,1,1,3,5,2,1,3,2,1,1,2,5,1,5,1,2,7,6,1,5,11:37:03,3.6,2,5,4,5,5,5,5,5,5,4,5,4,5,3,2,3,2,2,2,28,4.83333333333333,1.90909090909091,3,2,3,2,2,1,1,1,1,2,3,1,2,1,2,2,1,1,1,3,2,2,4,4,3,2,4,2,5,4,4,3,5,2,3.38461538461538,1,1,2,1, ,4,4,5,1,8,6,5,5,1, ,2,8,1, , ,3,1, ,1, , , , , , , , , , ,5,5,5,5,4,5,5,7,3,2,4,4,3,3,1,2,5,4,3,3,3,4,5,3,4,3,1,3,1,4,5,3,2,2,2,3,3,2,2,4,3,3,1,2,4,4,3,1,2,4,3,4,3,4,4,3,4,5,3,3,3,2,3,4,2,2,2.38461538461538,1,2,2,3,3,3,3,2,2,2,3,5,2,3,35.9,36,6,35.95,1,13,8,1,-.915731324805189,-.225209975485693,Portugal
1994,2,2,2,3,2,2,2,2,2,2,5,3,1,3,2,3,1.83333333333333,2,5,4,42,3, ,2.36363636363636,1,3,1,1,2,2,6,3,2,1,1,1,1,3,1,2,1,1,1,2,3,6,5,1,2,2,1,4,4,4,1,1,2,6,6,2,2,11:10:13,2.4,2,0,4,5,5,5,5,5,5,5,5,5,5,5,2,1,5,2,1,33,4.83333333333333,3.45454545454545,4,4,5,3,4,2,3,3,3,3,4,4,4,3,4,4,4,5,4,4,1,3,2,3,3,5,3,2,2,3,2,5,1,3,2.84615384615385,2,2,1,2,2,4,4,4,4,5,4,6,6,1, ,2,6,1, , ,4,1, ,1, , , , , , , , , , ,4,6,6,5,4,4,4,8,3,1,4,2,4,3,3,4,4,2,1,3,4,4,3,4,4,2,1,1,3,3,4,4,2,4,3,4,4,5,4,4,5,4,3,5,4,2,1,3,3,3,4,4,5,1,5,5,5,4,3,1,5,3,3,2,2,3,2.84615384615385,3,2,4,3,2,2,3,3,4,3,4,3,2,2,36.6,36.6,6,36.6,1,13,8,1,-1.15325890393554,-.148799448088762,Portugal
1995,1,3,1,3,1,1,1,3,1,1,1,2,1,2,1,3,4.5,0,5,1.22222222222222,42,3.5,20,1.54545454545455,1,2,3,5,4,1,6,5,7,6,1,6,7,2,6,2,6,6,6,4,4,6,4,2,1,3,4,4,1,4,4,4,1,5,7,4,1,11:31:12,1.8,2,3,4,5,5,5,5,5,5,5,5,5,5,8,7,8,5,7,8,20,6.83333333333333,1.90909090909091,4,1,4,3,1,1,1,1,1,1,3,1,3,1,1,1,1,1,1,1,1,4,2,5,3,5,5,5,2,5,4,5,5,3,4.07692307692308,1,1,2,1, ,4,4,5,2,1, ,4,4,1, ,2,3,1, , ,1,1, ,1, , , , , , , , , , ,7,7,7,7,7,6,7,6,1,1,5,5,2,5,4,1,5,4,5,1,3,3,3,3,3,3,3,3,1,5,4,1,4,1,3,1,4,4,5,4,5,5,2,1,5,2,5,2,2,5,5,1,1,5,4,4,3,5,5,2,2,1,4,2,1,3,3,4,5,4,3,2,1,2,1,4,2,5,4,2,4,36.5,36.5,6,36.5,1,13,8,1,1.69707204562873,.538895298483627,Portugal
1997,1,4,1,5,1,1,1,5,3,3,1,3,3,3,1,2,4.38888888888889,2,5,2.22222222222222,42,4.38888888888889, ,2.36363636363636,1,2,2,2,7,7,7,2,2,6,2,6,7,2,2,7,2,7,7,2,6,7,1,2,7,2,6,6,6,1,6,1,2,6,6,6,6,11:17:01,2.4,2,7,2,5,5,5,5,5,5,5,5,5,4,5,7,5,7,5,1,29,6.33333333333333,3.09090909090909,4,4,4,4,4,2,2,2,2,2,4,2,4,2,2,2,2,2,2,2,2,4,2,1,5,5,2,1,5,4,5,5,5,4,3.69230769230769,2,2,2,1, ,2,2,5,1,3,8,8,8,1, ,2,5,1, , ,1,1, ,1, , , , , , , , , , ,7,7,6,6,6,6,6,7,3,5,2,4,4,1,1,2,2,2,1,3,4,4,2,4,4,1,1,1,2,1,3,5,2,4,1,4,1,5,5,4,4,4,3,4,1,2,1,1,4,4,4,4,3,1,5,5,4,1,4,3,2,4,1,3,1,1,2.76923076923077,3,2,2,2,2,4,4,4,2,3,3,5,2,3,36.4,36.4,6,36.4,1,13,8,1,1.57830825606355,1.76146373683454,Portugal
1972,2,2,2,3,2,2,2,5,3,2,2,3,5,3,3,3,3.38888888888889,0,3.22222222222222,2.88888888888889,75,3.05555555555556, ,2.45454545454545,1,5,2,6,2,5,2,6,5,1,2,2,5,2,2,2,5,2,5,5,2,6,1,2,2,2,1,2,2,5,5,2,2,6,6,2,2,11:06:20,3.4,2,0,4,3,3,3,4,3,3,3,3,4,3,4,4,4,3,4,4,34,5.5,2.54545454545455,2,4,2,4,2,2,2,2,4,2,2,4,2,2,2,4,2,4,2,4,1,2,5,4,4,4,3,4,4,4,4,4,5,2,3.76923076923077,1,2,1,3,3,4,2,4,1,3,3,4,3,1, ,1, ,2,4,6,3,1, ,1, , , , , , , , , , ,4,6,6,6,6,5,5,8,1,2,4,4,4,3,3,3,2,2,4,2,4,3,4,4,3,3,3,3,4,2,2,4,2,4,4,2,3,4,3,4,4,3,2,2,4,4,3,2,3,3,4,3,2,3,4,4,3,3,4,4,4,4,4,3,4,2,2.69230769230769,3,4,4,2,2,2,2,3,2,3,3,4,2,3,36.4,36.6,6,36.5,1,11,8,1,.509434149976947,-.07238892069183,Portugal
1965,1,2,1,3,1,1,1,2,5,1,1,3,2,2,2,3,2.05555555555556,0,4.77777777777778,2.33333333333333,91,1.94444444444444, ,1.72727272727273,1,2,1,2,2,3,7,2,1,4,1,1,1,2,1,2,3,1,1,1,1,1,4,2,1,1,1,4,4,4,1,1,1,1,5,1,1,11:11:44,2.4,2,1,4,5,5,5,5,5,5,4,4,5,4,6,6,2,4,1,2,47,3.83333333333333,2.63636363636364,5,4,4,3,4,1,1,1,1,1,4,3,3,1,2,4,1,2,3,2,1,3,4,5,5,4,3,2,3,4,4,2,4,4,3.61538461538462,2,2,1,3,3,4,4,2,2,8,3,8,4,2,1,1, ,3,8,8,3,1, ,2,CampoVivo, , , , ,2, , , , ,3,4,5,4,3,4,3,9,1,2,4,4,4,3,3,4,4,4,1,2,4,3,4,5,3,1,3,1,2,2,4,4,2,4,4,4,2,3,3,5,5,5,2,3,4,3,3,2,1,2,4,3,2,1,5,5,5,4,4,2,2,3,4,2,3,1,2.30769230769231,2,3,3,2,2,2,2,3,2,2,2,4,2,3,37,36.8,7,36.9,1,9,8,1,-.915731324805189,-1.60059946863047,Portugal
1991,2,2,2,3,2,2,2,2,2,2,2,3,2,3,5,1,4,0,3.77777777777778,1.77777777777778,80,2.38888888888889, ,2.09090909090909,1,6,6,3,3,6,6,6,5,3,2,3,2,2,2,2,7,6,2,2,4,5,1,2,2,2,4,1,4,4,1,1,2,3,3,1,1,12:06:56,2.8,2,4,4,4,5,4,4,5,3,3,3,3,4,5,5,2,5,2,4,37,4.66666666666667,2.27272727272727,4,3,4,3,2,1,1,1,2,2,2,2,2,1,2,2,1,2,2,2,1,3,3,4,5,4,3,3,4,3,4,5,5,4,3.84615384615385,2,2,2,1, ,4,4,4,2,4,4,6,4,2,3,1, ,3,1,8,2,1, ,1, , , , , , , , , , ,5,4,5,4,5,5,6,8,1,2,4,3,4,2,2,2,4,3,1,3,5,5,4,4,4,1,1,2,2,2,3,3,3,2,1,2,4,4,4,3,5,4,2,4,4,4,2,2,4,3,2,4,3,4,4,4,4,3,4,2,3,5,4,3,2,3,2.38461538461538,2,3,3,2,2,2,3,2,2,3,3,3,2,2,36.4,36.4,7,36.4,1,13,8,1,1.16263499258543,-.989315249455014,Portugal
1993,2,5,3,1,5,2,3,5,5,5,2,1,5,4,5,4,4.22222222222222,0,4,2.11111111111111,73,3.72222222222222, ,3.45454545454545,1,3,3,6,3,3,3,5,3,5,6,6,3,3,6,6,3,3,6,6,3,5,5,3,3,6,6,5,2,2,5,2,3,3,2,3,3,9:58:30,3.8,2,0,4,4,4,4,4,4,4,4,4,4,3,3,5,3,4,2,2,64,2.83333333333333,2.36363636363636,2,2,3,2,2,3,1,3,3,3,2,2,2,2,2,1,1,3,4,2,1,5,3,4,5,5,5,2,4,5,5,3,5,4,4.23076923076923,1,2,2,1, ,4,4,4,1,3,2,2,8,1, ,2,3,3,4,4,4,2,7,2,amigos,familia,trabalho,Futsal,Faculdade,2,3,6,6,4,5,2,2,2,3,3,2,10,3,3,3,4,4,2,2,2,4,4,4,2,4,4,4,4,4,3,3,3,3,4,4,3,3,1,4,2,4,4,3,3,4,4,3,4,4,3,3,3,3,3,3,3,3,3,4,3,3,3,3,3,3,3,3,1,1,1,2.69230769230769,3,3,3,2,3,4,2,2,2,3,3,4,3,2,35.9,36,6,35.95,1,13,8,1,1.40016257171578,.844537408071355,Portugal
1978,2,5,1,1,2,2,2,2,2,2,1,3,1,2,3,3,2.11111111111111,0,3.44444444444444,3.33333333333333,75,2.44444444444444,15,2,1,2,2,2,3,1,6,2,2,3,2,1,1,2,2,1,2,2,2,2,1,7,1,2,2,2,2,1,1,1,7,1,1,1,6,1,5,10:47:22,2.4,2,0,3,3,4,4,5,5,2,2,3,3,4,3,6,2,2,2,2,64,1.83333333333333,2.18181818181818,2,2,2,2,2,2,2,2,2,4,2,4,4,4,4,3,2,2,3,4,1,2,2,3,2,5,2,2,2,1,5,3,2,4,2.69230769230769,1,1,1,2,3,2,2,2,1,4,4,3,3,1, ,1, ,3,8,8,5,1, ,2,politica,politica,sindical, , ,7,7,7, , ,2,2,2,1,2,2,1,8,2,2,4,4,3,2,2,2,5,5,1,2,4,3,3,3,3,2,2,2,1,4,4,2,3,2,4,2,4,4,3,4,4,3,1,2,5,4,2,2,2,2,3,2,3,1,4,4,5,4,4,5,5,4,3,3,2,1,2.38461538461538,2,3,3,3,2,1,2,2,2,2,3,4,4,2,36.1,35.8,6,35.95,1,11,8,1,-.856349430022599,-.912904722058082,Portugal
1979,2,5,2,3,2,5,5,2,5,1,5,3,3,1,3,1,3.72222222222222,0,4.88888888888889,3.11111111111111,79,3.11111111111111, ,3.36363636363636,1,6,2,3,6,6,3,2,6,3,5,5,2,2,2,1,6,6,1,6,6,3,2,3,2,2,2,1,5,2,5,2,1,5,5,2,2,10:45:22,2.2,2,2,3,5,5,5,5,5,5,4,5,5,3,3,5,2,2,2,2,30,5.33333333333333,3.90909090909091,5,4,5,4,5,2,3,4,4,2,5,3,4,3,4,3,2,3,2,4,1,3,5,5,3,4,4,4,4,4,4,4,4,4,4,1,2,1,2,2,2,2,4,4,2,2,2,2,1, ,1, ,3,4,4,1,1, ,1, , , , , , , , , , ,4,6,7,5,5,5,5,8,1,4,3,4,5,2,2,2,4,3,4,2,4,4,3,3,3,1,1,1,3,2,3,3,2,2,2,3,3,4,4,3,2,3,1,3,4,3,1,2,3,3,3,4,2,3,4,3,3,3,3,3,3,2,3,3,3,3,2.69230769230769,4,4,4,2,2,2,2,3,1,2,4,4,2,3,35.7,35.7,6,35.7,1,13,8,1,.865725518672482,.00402160670510241,Portugal
1978,1,1,1,2,1,1,1,1,5,1,2,3,1,3,2,2,2.22222222222222,0,3.88888888888889,2,79,3.22222222222222, ,1.54545454545455,1,2,2,2,2,3,2,2,2,1,2,5,2,2,2,2,3,2,2,5,1,7,1,2,2,2,1,1,2,2,6,6,2,6,6,1,5,11:57:52,2.2,2,0,4,3,4,4,4,4,4,4,4,4,4,6,6,4,4,4,4,66,1.16666666666667,2.63636363636364,4,2,4,2,4,2,2,2,3,2,2,2,2,2,2,2,2,2,2,2,2,4,4,3,4,5,2,4,4,3,4,4,4,4,3.76923076923077,2,2,2,1, ,4,2,5,1,8,8,8,8,1, ,2,8,2,1,8,8,1, ,2,Ginasio,Aulas,Social, , ,7,7,7, , ,1,2,1,1,1,1,1,8,4,1,3,3,5,2,3,5,2,2,4,3,4,4,4,3,3,2,2,2,4,2,2,3,2,2,2,4,3,4,3,5,3,4,4,2,3,1,3,3,3,3,3,3,2,2,3,2,2,2,4,3,3,2,3,3,4,1,2.38461538461538,4,3,2,2,2,2,2,2,3,3,3,3,2,1,36,36.7,6,36.35,1,13,8,1,-.737585640457421,.156842661498967,Portugal
1996,2,5,1,4,5,2,5,2,5,5,5,1,2,1,3,3,3.16666666666667,0,3.77777777777778,1.88888888888889,73,3.5, ,3.72727272727273,1,3,5,3,5,3,3,6,6,5,2,2,2,2,2,2,2,2,2,6,3,3,3,3,6,3,2,2,2,2,6,2,5,3,6,5,1,11:33:16,2,2,2,3,3,4,4,4,4,4,3,4,4,5,6,5,6,6,3,5,35,4.5,2.81818181818182,3,2,4,4,3,3,2,2,2,2,4,2,3,2,2,1,1,2,2,2,2,2,3,4,3,4,4,3,2,3,3,2,2,3,2.92307692307692,2,2,2,1, ,4,2,5,1,3,4,6,3,2,8,2,8,1, , ,1,1, ,2,Grupo de Jovens, , , , ,7, , , , ,6,4,5,4,4,4,4,8,3,3,3,3,4,3,3,4,4,3,2,3,4,3,4,3,3,3,3,2,2,3,4,2,3,3,3,4,4,4,5,4,3,3,4,3,4,3,4,3,3,4,3,4,2,2,3,4,3,3,4,3,3,3,4,3,2,3,3.15384615384615,3,4,4,3,3,3,3,3,3,2,4,4,3,3,36.6,36.6,6,36.6,1,13,8,1,.271906570846591,.538895298483627,Portugal
 , , , , , , , , , , , , , , , , , , , , ,74, , , , , , , , , , , , , , , , , , , , , , , , , , , , , , , , , , , , , , , , ,15:43:20, , , , , , , , , , , , , ,4,4,5,5,5,5,5,54,3, , , , , , , , , , , , , , , , , , , , , , , , , , , , , , , , , , , , , , ,1,2,2,4,4, ,4,5,5,7,6,2,1,2,2,3,7,6,5,2,5,2, , , , , , , , , , , ,3,3,3,3,3,3,11,4, , , , , , , , , , , , , , , , , , , , , , , , , , , , , , , , , , , , , , , , , , , , , , , , , , , , , , , , , , , , , , , , , , , , , , , , ,37, , ,37,1,7,8,1, , ,Portugal
 , , , , , , , , , , , , , , , , , ,0, , , , , , , , , , , , , , , , , , , , , , , , , , , , , , , , , , , , , , , , , , , ,8:39:21, , ,0, , , , , , , , , , , , , , , , , ,0, , , , , , , , , , , , , , , , , , , , , , , , , , , , , , , , , , , , , , , , , , , , , , , , , , , , , , , , , , , , , , , , , , , , , , , , , , , , , , ,0,0, , , , , , , , , , , , , , , , , , , , , , , , , , , , , , , , , , , , , , , , , , , , , , , , , , , , , , , , , , , , , , , , , , , , , , , , ,37.1, , ,37.1,1, ,8,1, , ,Portugal
 , , , , , , , , , , , , , , , , , , , , , , , , , , , , , , , , , , , , , , , , , , , , , , , , , , , , , , , , , , , , , ,10:48:31, , , , , , , , , , , , , , , , , , , , ,0, , , , , , , , , , , , , , , , , , , , , , , , , , , , , , , , , , , , , , , , , , , , , , , , , , , , , , , , , , , , , , , , , , , , , , , , , , , , , , ,0,0, , , , , , , , , , , , , , , , , , , , , , , , , , , , , , , , , , , , , , , , , , , , , , , , , , , , , , , , , , , , , , , , , , , , , , , , ,36.2, , ,36.2,1, ,8,1, , ,Portugal
 ,5,2,2,1,2,2,5,2,5,2,5,3,2,3,5,3,3.38888888888889,1,4.33333333333333,3.66666666666667, ,3.61111111111111, ,3, ,3,3,3,6,3,7,3,3,5,3,5,1,1,2,1,3,6,3,2,2,4,5,3,3,6,2,1,1,4,6,2,6,7,7,1,3,10:27:10,3.2, ,0,3,4,5,3,5,4,5,5,5,3, , , , , , , ,34,4.5,3.27272727272727,4,4,4,4,3,3,3,3,4,1,3,4,4,4,4,3,3,3,4,4, ,3,3,2,3,4,1,3,2,3,4,3,2,3,2.76923076923077, , ,1,4,4,1,1,5,1,4,3,7,4,1, ,1, ,3,1,8,3,1, ,2, , , , , , , , , , ,4,5,5,5,4,4,4,8,1,1,4,3,4,4,3,4,4,4,2,4,4,4,4,4,4,2,2,1,2,4,4,4,3,4,4,3,4,3,2,4,4,4,3,3,3,3,4,3,2,2,4,2,3,2,4,4,4,4,4,2,4,3,3,3,2,2,3.15384615384615,3,3,4,3,3,2,2,4,3,4,3,4,3,4,36.4, , ,36.4,1, ,8,1,.509434149976947,.691716353277491,Portugal
1994,2,2,1,3,1,3,5,3,5,5,4,1,1,2,2,4,4,0,1.33333333333333,2.88888888888889,61,4, ,3.09090909090909,1,4,4,4,4,4,4,4,4,4,4,4,4,4,4,4,4,4,4,4,4,4,4,4,4,4,4,4,4,4,4,4,4,4,4,4,4,23:18:28,2,2,12,5,1,1,2,1,1,2,1,2,1,4,5,2,1,1,1,1,11,3.16666666666667,3,5,5,5,5,1,1,2,2,1,1,5,4,4,2,3,4,2,1,1,5,2,5,1,1,1,4,2,1,3,1,2,4,4,2,2.38461538461538,2,2,2,1, ,4,2,5, ,1, ,4,4,1, ,2,8,2,1,2,1,1, ,1, , , , , , , , , , ,6,3,3,3,2,2,4,6,1,4,2,3,3,1,2,5,2,3,3,3,5,3,1,4,3,1,3,1,2,2,4,4,3,3,3,3,1,4,2,5,5,5,2,1,1,1,1,3,1,5,1,2,4,3,2,5,1,4,3,2,1,1,1,1,4,5,4.30769230769231,5,3,5,4,5,4,5,4,5,5,5,4,5,1,36.7,36.3,2,36.5,1,1,6,1,.639727980596659,.310414009344837,Serbia
1995,2,2,1,2,1,1,2,4,1,1,2,1,1,1,1,1,2.29411764705882,0,2.66666666666667,3.22222222222222,44,2.5,10,1.72727272727273,1,5,1,2,5,4,5,2,3, ,1,1,1,1,1,1,2,2,2,1,1,8,1,3,1,8,1,1,1,1,1,1,1,7,6,1,1,22:31:24,1,2,0,5,2,2,3,2,2,2,1,5,5,5,6,6,2,4,4,5,20,5.33333333333333,2.81818181818182,2,4,1,4,1,3,4,4,1,3,4,2,4,4,3,5,4,3,1,3,1,2,2,4,4,4,2,1,4,2,5,4,4,5,3.30769230769231,2,1,1,1, ,4,4,4,1,7,5,8,8,1, ,2,7,1, , ,1,1, ,1, , , , , , , , , , ,5,5,6,5,6,5,6,7,3,2,5,2,5,5,5,5,5,5,5,2,5,5,2,5,5,1,1,4,1,4,5,5,2,5,1,1,5,4,2,5,4,5,1,2,5,4,2,2,1,2,4,4,4,1,4,4,5,5,5,1,2,5,4,4,1,1,1.92307692307692,2,3,2,2,1,1,4,2,2,1,2,4,1,2,36.6,36.7,2,36.65,1,12,6,1,-.805923882583825,-1.07586077748704,Serbia
 ,3,3,3,3,3,3,3,3,3,3,3,3,3,3,3,3,2.66666666666667,0,3,1.44444444444444,79,4.625, ,3, ,1,4,1,4,4,4,4,4,4,1,1,4,4,4,1,1,1,1,7,6,4,4,7,4,4,5,7,4,4,6,3,2, ,3, ,4,17:21:24,3, ,0,5,3,3,3,3,3,3,3,3,3,1,2,1,1,1,1,1,14,1.16666666666667,1.27272727272727,2,1,2,1,2,1,1,1,1,1,1,1,2,2,1,1,1,2,1,2, ,2,3,5,5,5,5,1,5,5,1,1,5,1,3.38461538461538, , ,2,1, ,4,4,4,1,2,2,5,5,1, ,2,8,1, , ,1,1, ,1, , , , , , , , , , ,2,1,1,1,1,1,1,7,3,3,3,4,4,1,1,4,4,3,3,3,3,3,3,3,3,3,3,3,3,3,3,3,3,3,3,1,3,3,3,3,3,3,3,3,3,3,3,3,3,3,3,3,3,3,3,3,3,3,3,3,3,3,3,3,3,3,2.07692307692308,3,2,1,4,2,2,3,3,1,1,2,5,1,2,36.8, , ,36.8,1,11,6,1,-.490206809015673,.888028503858119,Serbia
1995,2,2,1,2,2,2,1,2,4,2,2,1,2,2,2,3,2.25,0,3.22222222222222,1.77777777777778,45,5.46666666666667, ,2,1,2,2,2,2,3,2,2,2, ,2, ,4,2,2,1,3,3,2,5,3,8, ,5,4,4,6, ,6,6,7,6,3,7,7, ,5,12:42:22,2,2,2,5,3,3,2,5,4,3,2,3,4,3,4,2,1,1,2,7,14,4.16666666666667,2.45454545454545,3,2,1,4,2,3,4,2,2,1,3,2,2,1,3,1,1,1,1,4,2,5,4,3,4,2,3,4,3,2,4,5,4,4,3.61538461538462,1,2,2,1, ,4,2,5, ,3,1,4,8,1, ,2,4,1, , ,2,1, ,1, , , , , , , , , , ,6,5,5,3,3,3,4,6,1,5,4,5,4,2,1,1,1,5,3,2,2,3,3,3,2,1,2,2,2,4,4,2,4,4,2,1,3,2,3,2,2,2,1,4,5,4,4,1,2,4,3,4,2,3,3,2,2,1,1,3,2,1,1,1,4,1,2.15384615384615,2,3,2,1,2,2,3,2,2,2,2,4,3,2,36.6,36.6,2,36.6,1,12,6,1,-.843311430769527,1.66588268980267,Serbia
1981,2,2,3,2,2,2,3,2,3,2,2,1,1,1,1,2,2.38888888888889,0,3.11111111111111,1.22222222222222,42,4.25, ,2.27272727272727,1,2,1,3,2,4,1,4,2,7,3,1,2,2,2,1,2,2,2,3, ,7, ,2,4,2, , , , , , ,2,7,7, , ,12:37:14,1.2,2,0,5,4,4,4,4,4,2,2,2,2,1,2,4,1,4,2,2,22,2.5,3.18181818181818,4,3,3,4,4,3,3,3,2,3,3,1,1,1,1,1,1,1,1,3,2,4,5,5,4,3,1,4,5,3,4,4,2,5,3.76923076923077,2,2,1,2,2,4,2,4,4,4,2,4,2,1, ,1, ,2,1,7,1,1, ,1, , , , , , , , , , ,4,3,2,2,2,2,2,8,1,3,3,3,3,3,3,2,2,4,2,3,5,4,3,5,5,1,3,3,3,4,3,3,2,1,3,3,5,3,4,2,5,5,1,2,3,2,5,3,1,4,5,1,3,3,4,3,2,4,4,4,3,1,3,3,4,1,2.46153846153846,3,3,4,2,2,2,2,2,3,2,3,4,2,2,36.4,36.1,2,36.25,1,16,6,1,-.725609890184909,.54145980715015,Serbia
1996,2,3,3,3,2,2,4,4,4,3,2,1,1,1,2,1,2.38888888888889,0,3.77777777777778,2.77777777777778,47,5.30769230769231, ,2.90909090909091,1,1,1,2,2,3,1,1,8,7,1,7,1,1,1,2,1,2,1,8, ,7,3,5,8,8, , ,3,3,5,1,5,7,6, , ,12:08:00,1.2,2,1,5,5,4,3,5,5,4,2,2,4,4,5,4,1,4,5,4,19,3.5,3,4,5,4,4,2,2,4,1,2,1,4,2,4,4,4,2,2,2,1,4,1,5,3,5,4,5,5,4,2,4,5,4,5,5,4.30769230769231,2,2,2,1, ,4,4,5, ,6,6,6,6,1, ,2,6,1, , ,2,1, ,1, , , , , , , , , , ,3,2,6,2,4,4,4,6,3,2,4,1,5,4,4,2,2,2,2,2,4,5,3,2,4,4,2,2,1,2,2,2,1,1,2,4,3,2,4,2,4,4,1,1,2,5,2,2,2,5,4,4,2,1,5,3,4,2,4,2,5,2,5,2,4,4,2.07692307692308,2,3,2,2,2,1,1,2,2,2,4,3,2,2,36.7,36.7,1,36.7,1,8,6,1,-.725609890184909,1.5189612594034,Serbia
1995,3,4,2,3,2,3,4,3,3,3,2,2,3,2,3,2,2.4375,8,4.66666666666667,2.66666666666667,44,4.07692307692308, ,2.90909090909091,1,2,2,2,2,8,3,2,2, ,2, ,2,2,2,2,2,2,2,8,3,5, ,5,2,3, , ,3,3,5,3,3,5,5, , ,11:45:14,2.4,2,8,5,4,4,4,5,5,5,5,5,5,4,4,5,3,4,4,4,15,3.83333333333333,3.18181818181818,4,4,4,4,4,2,2,2,2,3,4,3,3,2,3,3,2,2,2,4,1,4,4,4,4,4,4,2,4,4,4,4,4,4,3.84615384615385,2,2,2,1, ,4,4,4,2,1, ,3,5,2,2,2,8,1, , ,1,1, ,1, , , , , , , , , , ,5,4,3,3,4,4,4,7,3,3,3,1,5,3,3,3,3,5,4,4,4,5,4,3,5,5,1,1,3,3,4,3,3,4,2,2,2,3,2,4,3,5,4,4,4,4,3,2,3,4,4,4,3,2,4,4,4,3,4,2,4,3,4,4,3,3,2.23076923076923,2,3,2,3,2,2,2,2,3,2,2,4,2,2,36.2,36.5,1,36.35,1,12,6,1,-.684414350980293,.381505024054164,Serbia
1991,1,1,1,1,1,1,1,1,1,1,1,1,1,1,1,1,1, ,4.77777777777778,1,57,1.83333333333333, ,1,1,1,1,1,1,1,1,1,1,1,1,1,1,1,1,1,1,1,1,1,1,4,1,1,1,1,7,1,1,1,1,1,1,7,1,1,1,11:33:46,1,2, ,5,5,5,5,5,5,5,3,5,5,2,2,1,2,2,2,2,27,1.5,1,1,1,1,1,1,1,1,1,1,1,1,1,1,1,1,1,1,1,1,1,1,5,5,5,5,5,5,4,4,5,5,4,4,5,4.69230769230769,1,2,2,1, ,4,4,4,4,7,7,4,4,1, ,2,6,2,1,1,5,1, ,1, , , , , , , , , , ,1,3,1,1,1,2,2,8,3,5,1,5,5,1,1,2,1,1,1,1,5,5,5,5,5,5,1,1,3,3,1,1,3,1,1,5,5,2,3,1,5,5,1,1,1,5,3,1,3,5,5,5,1,1,3,1,1,1,5,1,5,1,3,1,5,1,1.76923076923077,2,2,2,1,2,1,2,2,2,1,2,5,2,2,36.4,36.4,1,36.4,1,6,6,1,-1.90262529603109,-1.69198290496787,Serbia
1996,4,2,1,2,2,2,3,1,2,2,2,2,2,1,2,2,2.88235294117647,0,4.33333333333333,2.66666666666667,65,3.33333333333333, ,2.09090909090909,1,2,5,2,3,5,2,2,5, ,1,6,2,2,2,2,5,2,1,2, ,3, ,2,2,2, , , , , , ,8,6,4, ,1,11:23:51,1.8,2,0,5,5,5,4,5,4,4,4,4,4,3,4,6,3,6,7,6,21,3.33333333333333,2.81818181818182,4,4,2,4,2,2,3,4,2,2,2,3,3,2,2,2,2,4,2,4,1,4,5,5,5,4,4,1,3,4,3,3,4,4,3.76923076923077,2,2,2,1, ,4,4,4,2,4,3,6,6,2,2,2,8,1, , ,3,1, ,1, , , , , , , , , , ,3,4,3,4,3,3,3,8,3,2,4,4,4,4,2,2,2,4,2,1,4,5,5,5,4,4,1,1,1,3,3,2,2,2,1,2,2,3,1,2,5,4,2,4,4,3,2,4,2,2,4,4,3,2,5,4,4,4,5,2,4,4,2,2,3,4,2.23076923076923,2,3,3,2,2,2,2,3,2,2,3,5,2,1,36.1,36.6,2,36.35,1,10,6,1,-.307423240107796,-.305708118135996,Serbia
1990,1,3,1,5,2,1,1,1,1,1,2,4,1,5,1,4,1.72222222222222,0,4,1.22222222222222,95,3, ,1.72727272727273,1,1,1,2,1,4,1,2,1,4,1,4,1,1,1,2,1,2,1,4, ,1,3,1,1,1,4,3,4,4,4,4,1,7,7,1,1,11:23:06,3,2,3,5,4,3,3,5,5,4,3,4,5,2,3,4,3,2,2,2,25,3.66666666666667,1.09090909090909,1,2,1,1,1,1,1,1,1,1,1,1,2,1,2,1,1,1,1,1,1,5,4,3,4,5,3,2,3,4,4,5,4,4,3.84615384615385,1,2,2,1, ,4,4,5, ,8,6,6,6,1, ,2,8,2,2,3,3,1, ,1, , , , , , , , , , ,3,5,4,4,4,2,4,7,3,3,2,3,5,1,4,3,3,2,3,1,2,5,3,4,4,3,1,3,2,1,1,2,1,2,1,5,3,2,1,3,3,4,1,2,3,1,1,1,2,3,5,3,3,4,4,3,2,3,1,1,3,1,1,3,3,1,1.61538461538462,2,2,2,1,1,1,2,1,2,3,2,5,1,1,36.5,36.5,1,36.5,1,11,6,1,-1.29057728499107,-.613769181876414,Serbia
1995,1,1,1,2,1,1,4,1,2,1,3,5,1,3,3,1,1.6875,0,3.66666666666667,3.44444444444444,58,2.58333333333333,10,1.63636363636364,1,1,1,4,2,2,2,2,1, ,1, ,1,1,1,5,1,1,1,1,3,3,1,1,1,1, , ,4, ,5, ,1,5,5, , ,11:16:31,2.6,2,0,5,4,5,3,5,5,4,1,3,3,3,3,4,1,2,1,3,16,2.5,2.72727272727273,5,2,3,2,4,2,2,2,2,2,4,5,5,4,3,4,4,3,2,1,1,2,1,5,5,5,2,2,1,3,2,5,4,4,3.15384615384615,2,1,2,1, ,4,4,5, ,4,4,6,6,1, ,2,8,1, , ,1,1, ,1, , , , , , , , , , ,3,4,1,2,3,2,3,6,3,5,2,1,5,5,3,4,4,5,2,2,3,5,4,4,4,4,1,1,1,2,2,2,5,1,2,3,2,1,1,1,4,5,1,2,4,3,2,1,1,2,4,3,4,2,3,4,3,4,5,3,4,1,3,2,3,1,2.07692307692308,2,2,3,2,1,1,2,3,1,2,3,5,3,2,36.3,36.3,2,36.3,1,6,6,1,-1.32000267013723,-.998845511551935,Serbia
1995,3,4,1,4,1,1,3,4,5,1,2,2,1,4,5,5,2.8125,0,4.11111111111111,1,58,4.82352941176471, ,2.63636363636364,1,2,2,1,5,4,2,8,2, ,2, ,4,2,1,2,4,2,2,7,5,7,4,5,3,2, ,5,6,5,5,6,3,7,7,1,4,11:15:23,3.4,2,0,5,5,4,5,5,5,2,3,4,4,1,1,1,1,1,1,1,15,3.66666666666667,1.72727272727273,1,2,2,1,3,1,1,1,2,4,1,1,1,1,1,1,1,1,1,1,2,5,5,4,4,4,5,5,5,4,5,3,4,5,4.46153846153846,1,2,2,1, ,4,4,5, ,3,2,5,4,2,1,2,8,1, , ,3,1, ,1, , , , , , , , , , ,5,2,5,5,2,3,2,7,2,5,3,2,5,1,5,5,1,1,1,1,2,4,3,3,1,1,1,1,4,1,3,1,1,1,2,5,2,3,4,4,4,2,1,5,4,5,5,2,2,5,5,4,1,5,3,1,1,4,1,4,1,1,1,1,5,1,2.23076923076923,1,4,4,1,1,1,2,2,2,2,5,4,1,3,36.3,36.3,1,36.3,1,4,6,1,-.366620191401824,1.0715060491741,Serbia
1987,3,3,2,3,2,2,2,2,2,2,2,2,2,2,2,2,2.55555555555556,0,4.44444444444444,2.55555555555556,88,2.33333333333333, ,2.27272727272727,1,1,2,2,8,4,2,5,1,3,2,1,1,5,2,1,2,2,2,2, ,4,1,1,2,2,3, , ,1,3, ,2,6, ,1, ,11:08:40,2,2,0,5,5,4,4,5,5,5,4,4,4,3,2,3,2,3,3,4,34,5.16666666666667,2.90909090909091,4,2,3,2,3,2,2,4,2,4,4,3,2,2,2,4,2,2,2,4,1,3,5,4,4,2,3,3,5,4,3,2,3,5,3.53846153846154,2,2,1,1, ,2,2,4,4,6,4,4,6,1, ,1, ,2,1,8,1,1, ,2,rekreacija, , , , ,20, , , , ,6,5,4,4,6,6,6,7,2,2,2,4,4,2,2,2,2,4,3,2,3,3,3,3,4,4,2,2,1,3,2,2,4,2,2,2,4,3,2,4,3,3,2,2,2,2,2,2,4,3,4,3,2,2,4,3,2,2,4,3,2,2,4,2,4,2,2.61538461538462,2,3,3,3,2,2,2,3,2,3,3,3,3,3,35.6,36.4,1,36,1,9,6,1,-.584368041483368,-1.22989130935725,Serbia
1991,2,4,2,4,2,3,3,2,2,2,1,5,3,1,3,2,5.05555555555556,0,3.11111111111111,2.55555555555556,88,4.16666666666667, ,2.45454545454545,1,5,3,7,3,7,5,3,4,4,5,6,7,4,8,8,4,3,5,4,4,7,6,7,4,8,3,1,3,4,3,3,2,5,4,4,3,11:07:10,2.8,2,0,5,2,2,2,4,4,4,4,3,3,4,5,4,2,4,3,3,27,4.66666666666667,2.63636363636364,4,3,1,3,1,3,1,2,4,3,4,2,3,3,2,3,3,2,4,1,1,3,5,4,2,4,5,3,2,3,4,4,4,3,3.53846153846154,1,2,2,1, ,4,4,5, ,8,8,4,8,2,4,2,4,1, , ,2,1, ,1, , , , , , , , , , ,4,5,5,4,5,5,4,7,2,2,3,4,4,5,4,3,3,3,3,3,3,3,2,2,4,3,2,5,3,4,4,4,4,3,5,5,4,3,1,2,4,3,2,2,3,2,4,5,5,4,4,3,3,3,4,3,2,4,4,4,3,3,3,4,3,2,2,1,2,2,2,2,2,2,1,5,1,3,3,2,1,36.2,36.4,2,36.3,1,9,6,1,1.53425968903976,.464444541215046,Serbia
1995,3,1,1,2,2,3,4,2,2,2,2,1,1,1,1,1,2.4375,0,4,1.11111111111111,56,1.46153846153846, ,2.18181818181818,1,1,1,2,1,8,5,5,1, ,1, ,1,5,1,1,3,1,2,1,1,1, ,1,1,1,1, ,1, , ,1,1,4,4,1, ,11:06:57,1,2,0,5,4,4,4,4,4,4,4,4,4,4,5,5,2,2,6,6,14,3.5,1.45454545454545,2,2,2,2,2,1,1,1,1,1,1,1,1,1,1,1,1,1,1,2,1,5,4,4,4,5,3,4,4,4,4,4,4,5,4.15384615384615,1,2,2,1, ,4,4,4,2,4,2,4,4,1, ,2,8,1, , ,1,1, ,1, , , , , , , , , , ,4,4,4,3,3,3,3,7,2,4,2,1,5,4,5,3,3,2,1,5,5,5,4,3,4,4,1,1,4,1,2,1,2,4,1,5,2,3,4,5,4,5,2,4,5,4,3,3,4,4,5,3,5,2,4,4,5,5,2,4,5,4,2,5,3,4,1.92307692307692,2,3,3,2,1,1,2,2,1,1,3,4,1,3,36.75,36.7,1,36.725,1,6,6,1,-.684414350980293,-2.03558947606295,Serbia
1987,1,1,1,3,2,1,2,1,5,2,2,1,1,2,5,2,2.4375,0,3.33333333333333,2.55555555555556,95,4.66666666666667, ,1.90909090909091,1,2,2,2,2,8,1,2,2, ,2, ,2,2,2,4,2,2,2,7,6,7,4,5,3,5,4,4,4,3,4,4,4,6,7,3,4,11:04:34,2.2,2,9,5,5,3,4,5,5,2,2,2,2,5,2,3,1,1,2,3,34,4.66666666666667,1.81818181818182,3,2,2,3,2,1,1,2,1,1,2,3,3,2,3,3,2,2,2,3,1,3,4,5,4,4,4,5,4,4,4,4,4,4,4.07692307692308,1,2,2,1, ,4,4,4,1,8,3,8,8,1, ,2,8,3,8,8,1,1, ,1, , , , , , , , , , ,4,4,5,4,6,5,5,8,3,1,4,2,4,4,2,2,2,5,2,3,4,3,3,4,2,2,2,2,2,2,4,4,2,2,2,1,2,1,4,5,3,3,2,3,5,4,2,2,4,4,4,4,3,2,4,4,4,3,3,3,4,2,2,3,4,2,2,2,3,3,1,2,1,1,2,2,2,3,4,2,2,36.5,36.5,1,36.5,1,11,6,1,-.684414350980293,.926536136825671,Serbia
1997,4,4,1,3,3,4,4,2,3,4,2,2,2,1,2,3,3.3125,0,5,1.22222222222222,65,1.75, ,3.09090909090909,1,5,2,2,4,4,8,1,2, ,2, ,1,2,2,8,1,8,1,2, ,4, ,1,1,1,1,1, , ,1, ,1,3,4,1, ,11:02:04,2,2,8,5,5,5,5,5,5,5,5,5,5,5,7,7,6,6,7,7,18,5.16666666666667,2.81818181818182,4,4,3,4,4,1,1,1,4,1,4,1,2,1,1,1,2,1,1,1,1,2,5,5,3,4,3,3,5,4,4,3,2,4,3.61538461538462,1,2,2,1, ,4,4,4,1,6,3,6,6,2,1,2,8,1, , ,2,1, ,1, , , , , , , , , , ,6,5,5,5,5,5,6,8,3,4,3,3,4,2,2,3,3,5,3,3,4,4,4,3,4,4,1,1,1,3,5,5,4,2,1,2,3,2,4,4,4,4,1,1,2,4,4,4,2,3,4,3,3,4,4,4,5,5,5,2,3,3,3,3,4,2,2.23076923076923,2,4,2,2,2,2,2,2,2,2,4,5,1,2,36.8,36.7,1,36.75,1,8,6,1,.0571053547028005,-1.76899817090298,Serbia
1996,2,2,1,2,3,2,4,1,1,1,1,3,2,2,3,2,3.375,0,4.11111111111111,2.22222222222222,44,4.46666666666667, ,1.81818181818182,1,4,4,4,5,7,1,2,5, ,1, ,4,4,1,1,8,1,2,4, ,8,1,4,4,2,6,4,4, ,4,4,4,7,7, ,4,10:56:42,2.4,2,3,5,5,4,4,5,5,4,3,3,4,5,6,5,3,4,8,5,17,4.16666666666667,2.18181818181818,4,3,3,1,3,1,3,1,1,1,3,1,3,1,5,3,2,1,1,3,1,3,3,4,3,4,4,2,3,3,3,4,3,3,3.23076923076923,2,2,2,1, ,4,2,4,1,5,5,4,3,1, ,2,8,1, , ,2,1, ,2,ksp, , , , ,3, , , , ,5,3,6,4,4,3,4,7,2,2,3,1,4,4,4,3,3,3,2,4,5,4,3,4,3,3,1,1,1,3,2,2,3,3,3,2,5,3,3,2,5,5,3,3,4,3,2,2,3,3,4,2,3,1,4,4,2,2,4,3,5,3,5,3,3,3,2.69230769230769,3,3,3,3,3,3,2,3,3,2,3,4,1,3,36,36.5,2,36.25,1,12,6,1,.110071047965879,.741699498581421,Serbia
1991,1,1,1,1,1,1,1,1,1,1,1,1,2,1,1,1,1, ,4.77777777777778,1,41,1.5, ,1,1,1,1,1,1,1,1,1,1,1,1,1,1,1,1,1,1,1,1,1,1,4,1,1,1,1,1,1,1,1,1,1,1,4,4,1,1,10:52:25,1.2,2, ,5,5,5,5,5,5,5,3,5,5,3,2,1,2,2,2,2,35,1.66666666666667,1,1,1,1,1,1,1,1,1,1,1,1,1,1,1,1,1,1,1,1,1,1,5,5,5,5,5,1,4,4,5,5,5,5,5,4.53846153846154,1,2,2,1, ,4,4,4,2,7,6,4,4,1, ,2,3,2,1,6,6,1, ,2,Nektaria fitnes tim, , , , ,5, , , , ,1,1,4,1,1,2,2,8,2,5,1,5,5,1,1,1,1,2,1,1,5,5,5,5,5,5,1,1,2,3,1,1,3,2,1,5,5,3,1,1,5,4,1,1,3,5,3,1,2,3,5,3,1,1,2,1,1,1,5,1,3,1,2,1,5,1,1.46153846153846,2,2,2,1,1,1,1,2,1,1,2,5,2,1,36.6,36.4,1,36.5,1,9,6,1,-1.90262529603109,-2.00004396870829,Serbia
1996,3,3,1,3,4,4,2,1,4,2,2,1,2,2,1,5,3,0,5,2.22222222222222,44,5, ,2.63636363636364,1,5,5,2,5,2,5,4,1,3,1, ,4,2,1,4,4,2,1,7,5,7,6,3,2,3,3,5,5, ,7,4,4,7,7,6,4,10:39:59,2.2,2,4,5,5,5,5,5,5,5,5,5,5,5,6,4,3,5,2,5,20,3.66666666666667,2.18181818181818,3,4,1,4,1,1,2,1,1,2,4,3,4,1,2,1,1,2,1,5,2,5,3,5,1,3,3,4,2,1,2,4,2,3,2.92307692307692,2,2,2,1, ,4,4,5, ,5,3,8,8,1, ,2,8,1, , ,4,1, ,1, , , , , , , , , , ,4,5,4,2,3,4,4,6,3,1,5,3,5,4,3,2,5,4,4,1,5,3,4,3,3,3,3,1,1,2,3,3,2,1,3,3,3,4,4,2,4,5,1,3,3,2,2,3,2,5,5,3,2,1,5,5,5,2,3,5,3,4,2,1,4,4,2.15384615384615,2,3,2,1,1,1,2,4,2,2,3,5,2,3,36.4,36.4,1,36.4,1,12,6,1,-.20772311161259,1.23459720056609,Serbia
1988,1,1,1,1,1,2,1,1,1,1,1,2,1,2,2,2,1,0,4.33333333333333,2,53,1.33333333333333,2,1.09090909090909,1,1,1,1,1,1,1,1,1,1,1,1,1,1,1,1,1,1,1,1,1,1,1,1,1,1,1,1,1,1,1,1,1,4,4,1,1,10:38:47,1.8,2,0,5,5,5,5,5,5,3,3,5,3,3,3,5,1,2,2,2,11,4.66666666666667,2.54545454545455,3,3,3,2,2,2,3,3,2,2,3,3,1,2,2,1,1,3,1,4,1,3,4,5,2,4,4,1,4,4,4,4,4,4,3.61538461538462,2,1,1,1, ,4,4,2,2,4,1,6,2,1, ,2,8,1, , ,1,1, ,1, , , , , , , , , , ,3,5,5,5,5,5,5,7,2,1,3,1,4,3,3,2,2,5,3,4,4,5,5,3,5,5,1,1,2,3,4,4,2,3,1,1,3,2,4,3,4,4,1,3,3,3,1,2,2,2,4,2,1,2,3,3,4,3,3,4,4,3,3,3,3,3,2.15384615384615,2,2,3,2,2,2,2,2,2,2,3,4,2,2,36.5,36.7,2,36.6,1,6,6,1,-1.90262529603109,-2.1540745005785,Serbia
1994,1,1,1,1,1,1,2,2,2,1,1,2,3,2,2,2,4.77777777777778,4,4.33333333333333,1.44444444444444,45,1.64705882352941, ,1.27272727272727,1,8,5,5,5,5,8,8,8,6,3,6,1,1,1,5,3,7,1,1,1,4,1,1,1,1,3,1,1,1,1,1,1,4,4,1, ,10:37:23,2.2,2,4,5,5,5,5,5,5,3,3,5,3,3,3,7,3,3,3,3,15,5,1.81818181818182,4,1,3,1,3,1,1,1,1,1,3,1,1,1,3,1,1,1,1,3,2,4,2,4,4,3,3,2,2,4,3,4,4,4,3.30769230769231,2,2,2,1, ,4,2,5, ,4,4,7,7,1, ,2,8,1, , ,1,1, ,1, , , , , , , , , , ,5,5,5,5,5,5,5,6,3,2,2,1,5,3,2,3,3,5,4,1,1,5,2,4,5,3,1,1,1,1,3,1,3,4,1,1,2,3,4,3,4,3,1,5,5,2,5,3,1,3,5,3,1,1,2,5,1,1,1,5,1,5,1,1,4,5,2.38461538461538,3,2,3,2,3,3,4,2,2,2,2,5,1,2,36.4,36.2,2,36.3,1,12,6,1,1.29885660787052,-1.86413467588164,Serbia
1995,3,2,3,2,3,3,2,2,2,2,2,2,2,2,2,2,3,0,3.88888888888889,2.33333333333333,83,4, ,2.36363636363636,1,2,2,2,5,8,4,2,2,4,2,4,2,2,2,2,3,4,2,4,3,8,3,4,4,4, ,3,3,4,3,3,4,4,6, , ,10:32:11,2,2,1,5,5,4,4,4,4,3,4,3,4,3,3,4,3,2,4,5,17,2,3.18181818181818,4,4,3,4,4,3,2,3,2,3,3,3,3,2,2,2,3,2,1,3,2,3,4,5,5,1,3,4,5,5,5,5,4,5,4.15384615384615,2,2,2,1, ,4,4,5, ,6,4,5,5,1, ,2,8,1, , ,3,1, ,1, , , , , , , , , , ,3,3,1,1,2,2,3,6,3,3,3,2,4,4,4,4,4,4,3,4,4,4,2,3,4,3,2,2,2,2,3,3,1,2,2,3,2,3,2,4,5,4,4,3,1,5,3,3,4,4,3,5,4,2,3,4,3,4,3,2,4,2,3,4,2,4,2.30769230769231,2,3,2,1,2,2,2,3,2,1,3,3,2,5,36.4,36.6,1,36.5,1,4,6,1,-.20772311161259,.310414009344837,Serbia
1993,2,4,2,4,1,2,3,2,4,4,4,1,4,2,4,1,2.4375,0,4.77777777777778,2.44444444444444,47,2.35294117647059, ,2.90909090909091,1,5,1,1,1,2,2,5,2, ,1, ,1,5,1,1,4,5,2,3,1,7,1,1,1,1,1,1,3,1,1, ,2,7,7,1,1,10:30:15,2.4,2,0,5,5,5,5,5,5,5,5,4,4,1,2,2,1,2,2,2,31,2,3.18181818181818,5,4,4,2,4,1,4,1,2,4,4,4,4,1,4,1,1,2,1,4,1,5,5,5,5,5,4,5,5,5,5,5,4,5,4.84615384615385,2,2,2,1, ,4,4,4,1,2,2,4,4,1, ,2,8,2,7,5,1,1, ,2,Joga klub, , , , ,6, , , , ,3,1,2,2,2,2,2,8,2,2,4,2,5,1,4,4,4,5,4,1,4,5,5,4,3,3,1,1,1,4,5,5,1,1,2,2,3,1,4,5,4,5,2,4,2,1,2,2,2,4,4,1,4,2,5,5,5,5,5,3,5,4,2,3,4,4,2.23076923076923,2,4,3,2,2,1,2,4,2,1,3,5,1,2,36.4,36.6,2,36.5,1,9,6,1,-.684414350980293,-1.21177007031369,Serbia
1979,1,2,1,2,4,1,2,2,1,2,2,2,2,1,3,2,1.16666666666667,0,3.66666666666667,2.11111111111111,95,2,0,1.81818181818182,1,2,1,1,1,1,1,1,1,1,1,1,1,1,1,1,1,2,2,1,1,4,1,1,1,1, ,1,1,1, , ,1,6,6, , ,10:23:35,2,2,0,5,4,4,4,4,4,2,3,4,4,4,5,4,1,3,3,3,27,2.16666666666667,2.36363636363636,4,4,2,4,2,1,1,2,2,1,3,4,2,2,2,1,1,2,1,4,1,3,3,5,4,3,2,2,4,4,4,5,3,4,3.53846153846154,2,1,1,3,3,4,4,4,4,3,1,4,4,1, ,1, ,3,1,6,3,1, ,1, , , , , , , , , , ,3,2,2,2,2,2,2,8,1,2,4,3,4,2,4,2,2,5,2,3,3,5,3,3,3,3,1,2,1,4,4,2,3,2,2,2,1,2,3,4,3,3,1,2,4,4,3,2,2,3,4,3,1,2,4,2,2,2,2,5,3,3,3,1,4,2,2.61538461538462,3,3,3,3,3,3,2,3,2,2,3,4,2,2,36.2,36.3,1,36.25,1,11,6,1,-1.76138344732955,-1.53795237309766,Serbia
1996,2,4,1,4,3,2,4,4,3,2,2,3,3,3,4,2,4.76470588235294,0,4.22222222222222,2.11111111111111,53,4.64705882352941, ,2.81818181818182,1,4,4,4,8,8,5,4,8,4,4, ,4,4,2,5,4,5,4,5,4,4,3,5,5,5,6,4,4, ,4,4,8,4,6,4,4,10:00:06,3,2,3,5,5,5,4,5,5,4,3,3,4,3,4,4,1,4,4,4,17,3,2.27272727272727,3,3,3,4,1,1,2,2,1,3,2,2,3,2,2,2,2,2,2,2,2,4,4,4,4,4,4,4,4,4,4,4,4,3,3.92307692307692,2,2,2,1, ,4,4,5, ,7,4,4,4,2,1,2,7,1, , ,3,1, ,1, , , , , , , , , , ,3,3,3,3,3,3,3,7,2,4,4,4,4,2,2,2,2,5,4,3,3,3,3,3,3,3,2,2,1,3,4,4,3,3,2,2,3,2,3,4,4,3,2,3,4,3,2,2,3,3,4,3,2,2,3,3,3,3,3,3,5,3,3,3,2,4,2.38461538461538,3,3,3,3,2,1,2,2,2,2,3,5,2,3,36.4,36.4,2,36.4,1,6,6,1,1.2877788158155,.908414897782118,Serbia
1997,3,2,1,3,4,2,2,3,2,1,3,3,2,2,2,3,1.47058823529412,2,5,1.88888888888889,45,3.3, ,2.36363636363636,1,1,1,1,1,4,2,1,1, ,1,1,1,1,2,1,2,3,1,5, ,5,1,3,3,2, , , ,1, , ,1,6,6, , ,9:49:18,2.4,2,3,5,5,5,5,5,5,5,5,5,5,5,4,6,2,7,6,6,13,3.16666666666667,2.18181818181818,2,2,4,2,2,1,3,1,1,2,4,2,2,2,1,2,1,1,2,4,1,4,4,4,5,1,4,3,4,3,2,4,4,4,3.53846153846154,2,2,2,1, ,4,4,5, ,2,2,4,3,2,1,2,8,1, , ,2,1, ,1, , , , , , , , , , ,3,3,4,3,3,3,3,7,2,2,4,3,2,3,3,4,3,5,4,2,4,4,4,2,3,3,1,1,2,3,4,4,3,4,1,1,2,3,3,4,3,4,2,4,3,3,2,3,3,4,4,3,3,2,4,4,4,4,4,2,4,3,3,3,4,3,2.53846153846154,3,3,3,2,2,2,2,3,2,3,3,4,3,2,36.6,36.4,2,36.5,1,12,6,1,-1.50382478205027,-.336514224510038,Serbia
1994,2,2,2,2,2,2,2,2,2,2,1,4,2,2,2,3,1.58823529411765,0,4.11111111111111,1.66666666666667,95,3, ,1.90909090909091,1,2,1,1,1,5,2,1,3, ,1,1,2,1,1,1,2,1,1,5, ,4, ,1,1,1, , , , , , ,1,7,6,1, ,9:03:32,2.6,2,2,5,5,4,4,5,5,4,2,4,4,4,4,4,1,2,2,4,28,2,2.09090909090909,4,3,2,2,1,2,2,2,1,2,2,1,2,1,1,2,2,2,2,2,2,5,5,5,5,5,5,3,5,4,5,5,5,3,4.61538461538462,1,2,2,1, ,4,4,5, ,8,4,8,8,1, ,2,8,1, , ,3,2,3,2,SF Gugi, , , , ,5, , , , ,2,2,3,1,2,2,2,7,3,4,2,2,4,2,2,4,2,4,1,1,4,4,4,4,4,2,2,2,4,3,1,1,1,3,2,2,2,2,2,4,4,2,2,2,3,2,2,2,2,3,4,3,2,4,4,2,4,4,4,3,2,2,2,2,4,2,1.53846153846154,2,1,1,1,2,1,3,2,1,2,1,3,2,1,36.5,36.5,1,36.5,1,11,6,1,-1.40412465355506,-.613769181876414,Serbia
1988,1,1,1,2,2,1,1,1,1,1,1,3,4,1,2,3,1.88235294117647,0,3.88888888888889,1.88888888888889,57,2.8, ,1.18181818181818,1,2,1,2,1,2,1,2,2,7,1, ,2,2,2,1,1,1,2,2, ,3, ,4,2,2, , , , ,1, ,2,4,4, ,4,9:03:10,2.6,2, ,5,4,5,4,5,5,3,2,3,4,2,3,3,1,3,3,3,33,1.83333333333333,1.54545454545455,3,3,1,3,1,1,1,1,1,1,1,2,2,1,3,2,1,1,1,4,1,5,5,5,4,3,5,1,3,5,5,4,2,4,3.92307692307692,2,2,1,3,1,4,2,4,4,8,3,8,8,1, ,2,8,3,1,8,5,1, ,1, , , , , , , , , , ,1,2,2,2,2,2,2,9,4,3,1,3,4,3,4,3,3,4,2,2,3,4,4,3,3,4,1,1,2,2,3,3,4,4,2,1,2,2,2,2,4,3,1,1,3,4,3,4,3,3,4,2,1,3,5,4,2,2,4,2,3,3,2,2,4,1,1.69230769230769,1,2,2,2,1,2,2,2,2,2,2,3,1,1,36.5,36.8,2,36.65,1,6,6,1,-1.15487433231704,-.798605820120664,Serbia
1996,3,3,1,2,3,1,2,2,1,2,2,2,2,1,2,2,3.47058823529412,0,4.77777777777778,2.44444444444444,65,3.75, ,2,1,4,4,4,2,4,8,5,4,4,4, ,2,2,2,2,2,4,2,4, ,8, ,2,2,2, , , , , , ,2,6,4, , ,8:42:37,1.8,2,4,5,5,5,5,5,5,4,4,5,5,3,3,4,1,3,1,3,15,2.66666666666667,2.45454545454545,4,3,3,2,3,2,2,2,1,2,3,2,3,2,2,2,3,3,2,3,1,5,5,5,5,5,3,3,5,3,5,5,3,4,4.30769230769231,2,2,2,1, ,4,4,5, ,5,3,3,3,2,1,2,8,1, , ,3,1, ,1, , , , , , , , , , ,2,3,3,3,3,2,2,7,2,3,3,3,4,2,3,3,3,4,2,2,3,5,5,5,5,5,1,1,3,1,1,1,2,2,1,2,3,3,1,3,4,4,2,3,3,3,2,4,4,4,3,4,3,3,4,3,1,4,3,4,3,4,2,3,2,4,2.38461538461538,3,3,3,2,2,1,1,3,2,2,3,4,2,4,35.2,35.1,2,35.15,1,8,6,1,.191077402368233,.0793682115395246,Serbia
1996,4,4,4,4,3,3,4,4,2,3,4,2,2,2,3,2,4.27777777777778,0,3.11111111111111,2.11111111111111,45,3.22222222222222, ,3.54545454545455,1,5,4,2,5,8,2,8,4,5,4,3,4,2,4,2,8,5,2,4, ,2, ,2,2,2, , , , ,3, ,2,6,6, , ,23:25:11,2.2,2,4,4,3,3,4,3,3,3,3,3,3,5,7,6,4,6,8,7,22,4.16666666666667,2.72727272727273,4,3,3,3,3,2,2,2,2,3,3,2,2,2,2,3,2,2,2,2,1,3,3,4,3,3,2,3,1,3,2,1,3,3,2.61538461538462,2,2,2,1, ,4,4,5, ,2,2,3,3,2,6,2,8,1, , ,6,1, ,1, , , , , , , , , , ,6,4,4,4,4,3,3,7,4,2,4,2,4,2,2,2,2,4,4,3,4,4,3,3,4,3,1,3,1,3,4,4,2,3,2,1,3,3,1,3,4,5,2,3,4,4,3,2,3,3,4,3,4,2,4,5,4,4,4,3,5,2,4,3,3,3,3.38461538461538,4,4,5,3,2,3,3,4,3,3,4,5,2,4,36.3,36,2,36.15,1,12,6,1,.875131061765895,-.408395139382802,Serbia
1995,4,2,2,2,4,2,4,3,5,2,2,2,2,2,2,2,4.33333333333333,0,3.66666666666667,4.33333333333333,44,3.46153846153846, ,2.90909090909091,1,4,8,5,5,5,8,2,5,6,1,4,1,4,7,5,2,2,4,4, ,2,1,5,2,2,1, , ,1, ,1,7,6,7,6, ,22:52:48,2,2,0,4,4,4,4,4,5,2,2,4,4,4,3,4,3,3,4,4,17,3.33333333333333,3.72727272727273,5,4,4,3,5,3,2,2,4,5,4,4,5,4,4,4,5,4,4,5,1,2,2,5,2,1,2,1,2,2,2,5,5,4,2.69230769230769,2,2,2,1, ,4,2,5, ,4,4,5,5,1, ,2,4,1, , ,1,2,4,1, , , , , , , , , , ,3,2,2,5,4,4,5,7,2,4,3,2,4,1,4,4,2,4,4,2,4,5,5,4,5,4,1,1,1,2,4,4,4,2,1,1,4,4,2,2,4,4,1,5,5,5,5,1,5,4,2,2,4,2,4,4,4,4,4,4,4,5,5,5,2,5,2.30769230769231,4,2,2,2,2,2,1,4,3,2,2,4,2,2,36.4,36.8,2,36.6,1,12,6,1,.922211677999742,-.187223093620452,Serbia
1995,5,4,3,4,4,4,5,4,3,3,4,2,2,2,4,2,2.61111111111111,0,4.55555555555556,3.22222222222222,45,1.88235294117647, ,3.90909090909091,1,4,2,1,1,1,5,8,1,4,1,7,1,2,2,1,1,4,1,1,1,2,1,4,1,1,7, ,1,1,1,1,1,4,3,1,1,22:19:52,2.4,2,18,4,5,4,4,4,5,5,5,5,4,5,8,6,6,6,6,8,11,4.66666666666667,3.27272727272727,5,5,5,3,4,1,1,1,3,3,5,2,3,3,3,4,4,4,2,4,1,3,4,5,3,4,3,3,2,2,3,2,2,4,3.07692307692308,2,2,1,1, ,4,4,1, ,2,2,4,3,1, ,2,3,1, , ,1,1, ,1, , , , , , , , , , ,4,5,5,4,5,5,5,6,1,2,4,2,4,3,4,3,3,2,4,3,3,5,4,1,5,4,1,1,2,3,4,4,3,3,1,3,1,2,4,5,2,5,3,4,4,4,2,2,4,4,3,4,4,2,4,4,5,5,4,3,4,4,4,3,3,5,3.23076923076923,4,4,4,2,3,3,3,3,3,3,5,4,2,3,36.7,36.6,1,36.65,1,12,6,1,-.53728742524952,-1.64667980735899,Serbia
1996,3,2,2,2,3,3,2,2,2,2,2,2,2,2,2,3,2.375,0,3.88888888888889,3.33333333333333,53,2.90909090909091,8,2.27272727272727,1,2,2,2,3,3,2,2,3, ,2, ,2,2,3,2,4,2,2,2,1,1, ,2,2,2,4,3, , , , ,2,6,7, , ,21:14:52,2.2,2,5,4,5,4,4,5,4,4,3,3,3,3,4,4,2,3,4,4,28,1.83333333333333,3.18181818181818,4,4,3,4,3,3,4,3,2,2,3,3,4,3,3,4,4,2,3,4,1,3,3,4,4,2,4,3,3,4,3,3,4,4,3.38461538461538,2,1,2,1, ,4,4,4,4,4,4,6,6,2,1,2,8,1, , ,8,1, ,1, , , , , , , , , , ,2,2,2,1,2,2,2,8,4,2,4,3,3,3,3,3,3,4,3,2,4,4,4,3,3,3,1,1,2,4,4,4,4,2,2,2,3,3,2,2,4,4,3,4,4,4,2,2,3,3,4,4,3,2,4,4,4,4,4,3,4,3,3,2,3,2,2.69230769230769,3,3,3,2,3,2,2,3,3,3,3,4,2,3,36.5,36.6,1,36.55,1,6,6,1,-.737380044243371,-.6977858356238,Serbia
1996,3,4,1,4,2,3,4,2,4,2,1,2,1,2,3,2,2.82352941176471,0,4.55555555555556,3.44444444444444,56,5.4, ,2.72727272727273,1,2,2,2,3,8,2,2,3,3,2, ,2,4,1,1,8,2,1,8,3,8, ,8,4,1,5,6, , ,7,5,1,7,7,6,5,19:57:28,2,2,25,4,5,5,5,5,5,5,3,4,4,5,4,5,2,4,4,4,30,4.16666666666667,3.63636363636364,5,5,4,4,4,2,4,3,1,3,5,5,4,2,5,4,2,2,2,5,2,3,3,5,5,4,4,4,4,4,4,4,3,5,4,2,2,2,1, ,4,4,5, ,6,6,4,3,1, ,2,8,1, , ,1,2,8,2,aiesec, , , , ,25, , , , ,3,6,5,3,4,4,5,7,3,2,4,2,4,2,2,2,2,3,3,3,1,4,4,3,4,4,2,2,1,3,4,4,2,3,2,2,3,2,3,2,4,1,3,1,4,2,2,3,3,3,4,2,1,2,4,4,1,1,1,2,2,3,4,3,2,2,2.69230769230769,2,4,3,2,2,2,2,3,3,3,4,5,2,3,36.2,36.4,1,36.3,1,6,6,1,-.357273304355398,1.60427047705459,Serbia
1995,3,3,1,2,3,1,3,3,4,2,1,2,4,1,3,2,3.94444444444444,0,3.88888888888889,1.33333333333333,44,1.93333333333333, ,2.36363636363636,1,5,5,5,5,8,7,2,4,6,1,4,1,3,1,5,2,5,2,2,1,3,1,2,1,1,1,1, ,1, ,1,2,5,6,1, ,13:21:45,2.4,2,4,4,4,4,4,4,4,3,3,4,5,3,4,4,3,3,4,4,20,4,1.63636363636364,2,2,3,2,1,1,1,1,3,1,1,1,2,2,1,1,1,1,1,2,2,4,2,3,3,4,3,2,1,2,5,4,4,3,3.07692307692308,2,2,2,1, ,4,4,5, ,6,4,6,6,1, ,2,8,1, , ,3,1, ,2,Ekoloska grupa, , , , ,2, , , , ,4,4,5,3,4,4,5,6,3,1,2,2,4,5,4,4,5,2,4,4,5,5,4,4,4,4,1,1,3,2,3,5,3,4,2,4,4,4,5,3,5,5,5,5,5,3,4,2,2,2,4,3,5,2,4,5,5,5,5,3,5,3,5,5,2,4,2.53846153846154,2,3,4,1,2,3,3,3,2,3,2,5,2,3,36.6,36.4,3,36.5,1,12,6,1,.592647364362812,-1.59956458584575,Serbia
1996,3,3,2,2,3,3,4,2,2,4,2,3,3,4,3,3,3.88888888888889,0,3.77777777777778,1.88888888888889,45,3.53333333333333, ,2.72727272727273,1,3,3,5,8,8,5,2,4,4,2,3,4,5,5,1,4,2,2,3,3,5, ,2,2,2,3,3,3, ,5,3,4,6,5, ,4,12:59:17,3.2,2,0,4,4,4,3,5,4,3,4,3,4,4,6,3,2,3,4,4,20,4,2.90909090909091,4,3,4,3,4,2,2,2,2,2,4,2,2,2,2,2,1,2,2,2,2,3,5,2,3,4,4,4,4,3,4,4,4,4,3.69230769230769,1,2,2,1, ,4,4,5, ,8,3,8,6,1, ,2,8,1, , ,6,1, ,1, , , , , , , , , , ,3,5,5,4,4,3,4,6,4,4,2,3,4,2,2,3,2,4,3,4,4,4,5,4,3,5,2,2,2,3,5,5,3,4,2,2,3,3,2,4,3,4,2,1,3,3,2,2,3,4,4,4,3,4,4,4,3,4,4,3,4,3,4,3,4,2,2.23076923076923,2,2,3,2,2,2,3,2,3,2,3,4,1,2,36.6,36.7,3,36.65,1,12,6,1,.545566748128965,-.120871479891747,Serbia
1996,2,2,1,2,2,1,1,1,2,1,4,2,2,1,2,1,4.88888888888889,16,5,2.44444444444444,45,3.29411764705882,3,1.72727272727273,1,8,5,8,8,7,2,5,8,5,1,4,5,8,2,1,8,1,2,3,1,7,1,2,2,1,7,6, ,1,3,3,1,7,7,1,3,12:49:21,1.6,2,16,4,5,5,5,5,5,5,5,5,5,5,7,4,3,5,5,5,16,4.66666666666667,2,3,2,2,2,2,1,1,2,1,4,2,2,3,2,2,2,1,4,2,4,1,4,5,5,2,4,5,4,4,5,4,4,5,5,4.30769230769231,2,1,2,1, ,4,4,5, ,4,3,3,3,2,2,2,5,1, , ,3,1, ,1, , , , , , , , , , ,7,5,5,2,5,4,5,7,2,4,2,5,5,2,5,3,3,2,2,2,3,5,5,3,5,5,1,1,1,3,2,2,3,2,2,5,2,1,4,2,3,5,4,2,4,2,5,3,1,4,3,3,5,2,5,4,3,3,1,3,4,2,1,1,3,3,2.07692307692308,1,3,2,4,2,1,2,2,2,2,2,4,2,2,36,35.9,1,35.95,1,12,6,1,1.39301784033821,-.341950596223105,Serbia
1990,2,4,2,2,2,1,2,2,4,1,1,3,3,3,4,3,1.94444444444444,0,2.77777777777778,1.55555555555556,95,3.7, ,2.09090909090909,1,2,1,2,1,8,2,2,2,1,1,1,2,2,1,1,2,2,2,2, ,7, ,4,4,2, ,1, ,5, , ,2,7, , ,3,12:30:56,3.2,2,4,4,4,2,4,4,4,2,1,2,2,1,2,2,1,2,2,2,20,2.16666666666667,1.45454545454545,2,1,2,2,2,1,1,1,2,1,1,2,2,1,2,1,2,2,1,1,1,5,5,4,4,5,4,5,4,4,5,5,5,4,4.53846153846154,1,2,2,1, ,4,2,4,1,8,5,6,5,1, ,2,4,3,1,2,3,1, ,1, , , , , , , , , , ,2,3,3,1,2,2,4,8,2,5,4,4,5,2,4,4,2,4,2,1,3,5,4,4,4,4,1,1,5,3,2,2,3,2,2,2,3,2,2,3,4,3,2,3,4,4,4,2,2,3,4,2,2,4,4,4,3,3,4,3,4,2,1,2,1,2,1.76923076923077,3,1,2,2,2,1,2,2,2,2,1,5,1,2,36.5,36.3,2,36.4,1,11,6,1,-1.10225482005569,.0331590519784622,Serbia
1994,3,2,2,2,2,2,2,2,2,2,2,2,3,2,2,3,3.33333333333333,0,4.55555555555556,2.33333333333333,50,3.81818181818182,15,2.09090909090909,1,5,3,3,2,5,3,5,5,5,2,4,2,3,2,2,2,5,2,4, ,8, ,3,2,3,3, , , ,3, ,4,6,3, ,3,12:00:58,2.4,2,2,4,5,5,5,5,5,5,3,4,4,3,5,5,2,3,6,1,30,5,2.54545454545455,3,3,4,2,2,1,2,2,2,3,4,1,4,2,3,2,2,3,1,3,1,3,4,4,4,4,3,2,4,4,2,3,4,4,3.46153846153846,2,1,2,1, ,4,4,4,1,5,8,6,8,1, ,2,8,1, , ,3,2,3,2,Nurdor, , , , ,2, , , , ,5,5,5,5,5,5,6,8,3,2,2,2,4,4,4,4,4,4,3,2,4,4,4,3,4,4,2,2,2,1,3,4,2,3,3,3,4,4,4,3,4,4,1,1,4,2,3,2,2,2,4,4,4,2,4,4,4,4,4,4,4,3,4,3,2,4,2.69230769230769,3,3,4,3,2,2,2,3,2,2,4,4,2,3,37.1,36.9,1,37,1,8,6,1,.0747605857904933,.142380701850065,Serbia
1995,2,2,1,3,2,1,2,3,3,2,1,2,2,3,4,3,1.77777777777778, ,4,1.11111111111111,95,2.92857142857143, ,2,1,1,1,1,2,4,1,4,1,1,4,1,2,1,2,1,2,2,1,3,1,8, ,2,2,2,3, ,1,1, ,1,1,6,7, ,3,11:56:27,2.8,2, ,4,4,4,4,5,3,5,4,4,3,4,5,6,2,6,1,5,16,3.83333333333333,1.18181818181818,3,1,1,1,1,1,1,1,1,1,1,1,1,1,1,1,1,1,1,2,1,5,4,5,5,4,4,2,4,5,4,5,5,5,4.38461538461539,2,2,2,1, ,4,4,5, ,3,2,5,5,1, ,2,8,1, , ,4,1, ,1, , , , , , , , , , ,5,4,4,2,4,4,4,6,3,3,3,3,5,2,2,2,2,5,1,2,4,5,4,4,5,5,1,1,4,3,2,2,2,5,1,3,2,2,3,3,3,4,2,4,4,4,3,2,2,3,4,3,2,2,3,3,2,3,3,2,3,3,4,3,3,4,2.23076923076923,2,5,3,2,2,1,3,2,2,2,2,3,2,1,36.3,36.4,1,36.35,1,6,6,1,-1.24349666875723,-.679782266963646,Serbia
1996,3,3,1,3,4,1,2,3,3,1,2,2,2,2,3,1,3.61111111111111,0,4.11111111111111,2.33333333333333,45,4.66666666666667, ,2.36363636363636,1,3,3,3,4,8,4,5,5,3,3,3,2,2,2,3,5,5,2,3, ,8, ,4,4,4,4,4,3, ,6,5,4,6,6,4,5,11:50:09,2,2,1,4,5,4,5,5,4,4,3,4,3,5,5,4,2,3,2,3,18,2.83333333333333,2,4,3,2,3,2,1,1,2,1,1,2,2,2,2,3,2,2,3,1,4,2,3,3,5,4,4,1,1,3,3,4,4,3,3,3.15384615384615,2,2,2,1, ,4,4,5, ,2,1,3,3,1, ,2,8,1, , ,2,1, ,2,Klub studenata pedagogije, , , , ,7, , , , ,3,3,2,2,4,3,3,6,2,1,3,2,4,4,3,3,4,4,2,4,4,4,4,4,4,4,3,3,3,2,4,4,2,2,3,2,3,3,3,2,5,3,4,4,3,2,2,2,3,3,3,4,2,2,4,4,2,4,4,3,5,3,4,4,2,4,2.53846153846154,2,2,3,2,2,3,3,4,3,3,2,5,2,2,36.5,36.5,2,36.5,1,12,6,1,.310163666959729,.926536136825671,Serbia
1975,4,5,3,5,4,4,5,5,4,5,3,4,5,2,3,1,3.58823529411765,0,3.66666666666667,2.55555555555556,88,3.21428571428571, ,4.27272727272727,1,4,2,2,3,5,2,2,2,3,2, ,4,8,3,8,2,5,4,2,1,4,1,5,2,5, , , , ,4,3,5,4,5,1,3,11:45:55,3,2,5,4,4,4,3,5,5,3,2,4,3,4,5,3,3,3,3,3,26,5,2.63636363636364,2,4,2,3,2,2,3,4,2,3,2,2,3,3,3,1,1,4,1,5,2,1,3,2,2,2,2,3,1,3,4,1,3,3,2.30769230769231,2,2,2,1, ,2,2,5, ,2,2,6,5,1, ,1, ,3,1,8,2,1, ,2,Sportska sekcija, , , , ,5, , , , ,5,4,5,5,6,5,6,6,2,1,3,2,5,5,2,2,4,4,3,3,5,5,5,1,4,3,1,1,1,2,4,4,2,1,2,4,4,4,3,2,4,5,3,3,3,3,3,3,1,2,1,2,2,1,4,4,3,5,5,3,5,4,3,3,2,4,3.30769230769231,3,4,5,3,3,4,3,2,3,3,4,4,2,4,37,36.9,1,36.95,1,9,6,1,.290777530863439,-.415729926614717,Serbia
1996,2,2,1,2,1,1,2,2,3,2,1,2,2,2,3,1,2.17647058823529,0,3.88888888888889,3.22222222222222,45,3, ,1.72727272727273,1,2,2,1,3,2,2,2,3, ,1,3,2,2,1,5,2,3,1,2,1,5,1,1,1,4,4, , , ,3, ,3,6,5, ,3,11:33:11,2,2,0,4,5,5,5,5,5,3,2,2,3,4,4,5,1,4,4,4,30,4.16666666666667,3.36363636363636,4,4,4,4,2,2,4,4,3,2,4,4,4,2,4,4,2,2,2,5,2,3,4,4,3,4,3,3,3,4,3,4,4,4,3.53846153846154,2,2,2,1, ,4,4,5, ,4,2,7,7,1, ,2,8,1, , ,1,2,8,2,AIESEC, , , , ,7, , , , ,3,5,4,4,5,4,4,7,4,2,4,4,4,4,4,3,3,3,3,2,4,4,4,3,4,4,1,1,2,3,2,4,1,3,1,4,2,2,3,2,3,4,1,2,3,2,3,3,2,3,4,4,2,1,4,4,4,3,3,4,5,3,2,2,3,1,2.46153846153846,2,3,3,2,2,2,3,3,2,2,3,4,2,3,35.4,36.4,2,35.9,1,12,6,1,-.905624011079031,-.613769181876414,Serbia
1996,2,2,1,2,2,4,3,2,2,2,1,2,3,2,2,2,2.47058823529412,0,3.77777777777778,3.22222222222222,65,3.4, ,2.09090909090909,1,2,2,2,2,4,2,2,2,3,2, ,4,1,2,2,4,4,2,4, ,5, ,2,2,2, , , ,3, , ,2,6,4, ,4,11:30:11,2.2,2,0,4,4,4,4,5,5,3,3,3,3,4,3,4,2,3,3,4,19,4,3.09090909090909,4,4,4,3,3,3,2,2,2,3,4,3,3,4,3,3,3,3,3,4,2,2,4,5,4,4,3,2,4,3,3,4,4,3,3.46153846153846,2,2,2,1, ,4,4,5, ,8,3,3,2,2,1,2,7,1, , ,1,1, ,2,AIESEC, , , , ,7, , , , ,3,5,4,4,4,4,5,7,2,3,3,4,5,2,2,2,2,4,2,2,4,4,4,4,4,4,1,1,3,3,4,2,2,3,1,3,2,3,1,2,5,3,1,3,4,3,2,2,3,1,4,2,3,2,4,3,3,4,4,2,5,3,3,4,4,4,2.38461538461538,2,3,3,2,1,3,2,2,2,2,3,4,2,4,36.8,36.8,1,36.8,1,10,6,1,-.656373689841016,-.244095905387913,Serbia
1996,1,1,1,1,1,2,1,1,1,1,1,4,1,1,1,1,4.66666666666667,0,2.77777777777778,1.22222222222222,56,3.11764705882353, ,1.09090909090909,1,3,8,4,5,7,7,4,5,6,3,7,5,1,3,1,5,5,5,2,1,2,1,1,1,2,3, ,5,5,6,6,1,6,4,1,6,11:26:18,1.6,2,5,4,5,3,4,4,4,2,1,1,1,4,6,7,1,3,6,6,22,6.33333333333333,2.18181818181818,3,3,4,2,1,1,1,3,1,1,4,1,1,1,1,1,1,2,1,2,2,3,3,3,3,3,2,2,2,3,3,2,3,4,2.76923076923077,2,2,2,1, ,4,2,5, ,1, ,5,5,1, ,1, ,1, , ,2,2,2,2,udruzenje građana,Crveni krst, , , ,6,4, , , ,4,7,7,6,7,7,6,5,1,1,2,1,5,3,3,3,4,2,2,2,5,3,2,5,4,2,1,4,1,1,2,5,1,4,2,5,2,3,4,2,5,5,1,2,4,2,3,2,2,2,4,1,2,4,4,4,4,4,3,5,3,2,5,2,1,3,2.07692307692308,2,3,2,1,2,1,3,3,2,2,2,5,2,2,36.9,36.9,1,36.9,1,6,6,1,1.20469537540283,-.50504174761509,Serbia
1978,3,3,1,3,4,4,4,2,4,3,2,3,1,1,2,1,1.875,0,4.11111111111111,2.88888888888889,95,3.9,5,3,1,2,1,2,2,4,2,2,2, ,1, ,1,5,2,1,1,1,1,5, ,8, ,3,2,2, , ,1, , ,1,4,6,7, , ,11:26:08,1.6,2,21,4,5,5,4,5,5,3,4,3,3,3,5,5,1,2,2,5,40,4.83333333333333,1.90909090909091,2,4,1,3,1,1,2,2,3,1,1,3,4,2,4,1,2,5,1,4,1,4,5,4,4,3,4,3,4,4,3,2,4,4,3.69230769230769,1,1,1,2,2,4,4,3,3,6,4,7,7,1, ,1, ,3,1,8,4,2,6,1, , , , , , , , , , ,4,5,4,4,6,6,6,9,3,4,4,4,3,2,3,4,3,5,3,5,5,5,3,3,3,3,1,2,4,4,4,3,3,4,1,1,5,3,4,4,3,4,4,3,4,4,3,4,3,4,1,2,2,2,4,3,2,2,3,4,2,2,2,3,3,3,2.38461538461538,2,3,3,2,2,2,2,3,2,2,3,4,2,3,35.9,36.1,2,36,1,11,6,1,-1.161105590348,.217995690222712,Serbia
1996,4,2,1,3,2,2,2,2,2,4,2,1,2,1,3,1,2.11764705882353,0,3.77777777777778,3.22222222222222,75,2.625, ,2.36363636363636,1,1,2,1,2,2,3,1,1,1,2, ,2,1,4,2,8,2,1,2,1,8,1,2,1,1,6,1, ,1, ,1,1,6,6,3,1,11:25:43,1.6,2,0,4,5,3,3,5,5,3,4,3,3,4,7,4,1,4,3,6,12,5,2.45454545454545,3,4,2,1,2,2,3,3,3,3,1,2,3,4,4,3,2,4,2,5,1,1,3,5,4,5,1,2,4,3,2,2,2,3,2.84615384615385,2,2,2,1, ,4,4,5, ,2,2,2,2,1, ,2,8,1, , ,3,1, ,1, , , , , , , , , , ,5,4,6,5,5,5,6,6,2,1,3,2,4,4,2,2,5,4,3,4,4,5,3,3,4,4,1,1,1,4,4,4,2,2,1,1,2,2,4,5,4,5,3,3,4,3,2,2,3,2,5,4,4,1,1,5,3,4,4,2,5,5,2,3,2,2,2.92307692307692,2,5,3,3,3,2,2,3,3,3,5,4,1,3,36.9,36.8,1,36.85,1,4,6,1,-.955474075326633,-.960337878584383,Serbia
1996,4,4,1,2,4,4,4,2,3,2,4,2,2,1,3,1,1.64705882352941,0,4.66666666666667,2,45,2.05555555555556, ,3.09090909090909,1,1,1,2,1,1,4,1,1,1,1, ,1,1,1,1,1,8,1,1,1,5,1,7,1,1,1,1,1,1,1,1,1,6,5,1,1,11:24:41,1.8,2,5,4,5,5,5,5,5,5,3,4,5,5,6,7,1,6,6,6,22,4.5,2.63636363636364,4,2,2,3,4,2,2,2,2,2,4,2,2,2,2,2,2,2,2,2,1,5,4,4,4,4,2,1,3,1,2,4,4,4,3.23076923076923,2,2,2,1, ,4,4,4,4,7,6,4,4,1, ,2,8,1, , ,3,1, ,1, , , , , , , , , , ,3,5,5,4,5,5,4,7,2,3,3,4,4,3,4,2,3,4,4,4,4,4,4,4,4,4,1,1,2,2,4,4,2,2,1,2,2,2,3,4,4,4,2,4,5,4,2,2,2,4,4,4,3,4,4,4,4,4,4,2,3,3,4,4,4,3,2.92307692307692,3,4,4,2,3,2,2,3,2,3,4,5,2,4,36.5,37,2,36.75,1,12,6,1,-1.35427458930746,-1.48660886247426,Serbia
1973,1,2,2,3,1,1,3,2,2,3,1,2,2,2,1,1,2.25,0,4.33333333333333,1.55555555555556,45,3.5625, ,1.90909090909091,1,2,1,1,3,4,1,1,3, ,2, ,5,4,2,1,2,2,2,2,3,5, ,3,2,4,3,3, ,3,4,3,3,7,6,3,3,11:24:32,1.6,2,0,4,5,5,5,5,4,4,3,4,4,4,5,3,2,3,3,3,38,4,1.36363636363636,3,1,1,3,1,1,1,1,1,1,1,1,1,1,2,1,2,3,1,2,1,4,4,4,3,4,4,4,3,4,3,3,3,4,3.61538461538462,2,2,4,1, ,4,4,4,4,8,6,8,8,1, ,1, ,3,1,8,3,1, ,2,udruzenje terapeuta, , , , ,3, , , , ,3,4,4,4,5,4,5,7,2,3,3,4,4,2,2,2,2,4,3,2,4,4,4,3,4,4,2,2,4,2,3,3,2,2,2,2,3,3,4,2,4,4,2,4,4,3,4,2,3,2,4,2,2,2,4,3,5,3,3,3,3,2,2,3,4,1,2.23076923076923,3,3,3,2,1,1,2,3,2,2,3,5,1,3,36.1,36.4,2,36.25,1,10,6,1,-.843311430769527,-.09391613681446,Serbia
1996,3,2,2,2,3,2,4,2,4,2,3,1,2,1,2,1,3.05555555555556,0,4.33333333333333,2.11111111111111,45,5.625, ,2.63636363636364,1,4,4,4,5,4,3,5,4,4,1,1,4,4,1,2,3,1,1,5, ,8,3,5,8,7,6,6,4, ,6,5,8,5,5,5,4,11:21:58,1.4,2,6,4,5,5,5,5,5,5,3,3,3,2,3,3,1,3,3,3,23,4.66666666666667,1.72727272727273,2,2,2,2,2,1,1,2,2,1,2,2,2,2,2,2,1,2,3,3,2,4,1,4,3,3,1,2,2,2,3,2,4,4,2.69230769230769,2,2,2,1, ,4,4,5, ,7,3,8,7,1, ,2,8,1, , ,1,2,4,2,AIESEC, , , , ,3, , , , ,5,5,5,5,4,4,4,7,3,2,2,3,4,1,3,2,2,3,2,3,3,4,4,3,5,5,2,1,1,3,4,3,3,2,3,3,2,2,5,4,4,4,2,4,4,4,5,3,1,2,4,3,2,4,5,5,5,5,5,2,5,3,3,3,4,3,2.38461538461538,2,3,3,2,2,2,3,3,2,2,3,4,1,3,36.8,36.7,1,36.75,1,12,6,1,-.160642495378743,1.81221169507937,Serbia
1996,1,1,1,1,2,1,1,1,2,1,2,1,3,1,1,1,2.27777777777778,0,4.88888888888889,3.33333333333333,83,2.53333333333333,7,1.27272727272727,1,1,1,1,1,1,8,2,1,1,2,1,1,1,8,1,7,1,2,7,1,7,1,1,2,1,1, ,1,1,1, ,1,7,5,1, ,11:20:18,1.4,2,1,4,5,5,5,5,5,5,5,5,4,4,4,4,1,2,3,6,30,5,2.63636363636364,4,3,4,3,2,1,2,2,4,2,2,4,4,4,4,2,2,2,4,4,1,1,4,2,2,3,2,1,2,5,3,2,4,5,2.76923076923077,2,1,2,1, ,4,4,4,1,3,2,6,6,1, ,2,8,1, , ,1,1, ,2,Udruzenje studenata psihologije,Petnica,Centar za promociju nauke, , ,5,7,3, , ,5,6,5,4,5,5,6,7,3,1,1,1,5,5,2,3,5,1,1,2,5,5,5,3,5,4,1,1,2,2,1,5,1,5,1,4,5,5,3,4,5,5,4,4,3,4,4,2,2,3,4,4,4,1,5,5,5,5,4,3,5,5,4,4,2,4,2.23076923076923,2,3,2,2,1,1,1,5,2,1,5,4,2,2,36.5,37,1,36.75,1,4,6,1,-.819771122652603,-1.045054671113,Serbia
1996,4,4,2,4,4,2,3,2,2,3,3,4,3,2,2,2,2.64705882352941, ,4.77777777777778,2.44444444444444,96,3.72727272727273, ,3,1,4,2,2,2,2,4,2,2,3,2, ,2,2,2,5,2,5,2,4, ,8, ,2,2,2, , ,3, ,3, ,2,6,6, ,3,11:19:55,2.6,2, ,4,5,5,4,5,5,5,5,4,5,4,3,4,2,6,5,4,18,3.33333333333333,2.90909090909091,5,4,3,4,2,2,2,2,2,2,4,2,2,2,2,1,2,4,2,5,2,5,3,5,5,5,3,2,2,5,3,4,3,3,3.69230769230769,2,2,2,1, ,4,4,5, ,4,4,4,6,1, ,2,7,1, , ,3,1, ,1, , , , , , , , , , ,3,4,4,3,3,3,2,6,3,3,3,4,4,2,4,3,3,4,4,2,4,4,4,3,3,3,2,2,4,4,4,3,4,2,2,2,3,3,2,2,4,4,3,4,4,4,2,3,4,3,4,3,4,2,4,2,3,2,2,2,4,3,3,2,1,4,2.38461538461538,2,3,3,2,2,2,3,2,3,2,3,3,2,2,36.1,36.6,1,36.35,1,4,6,1,-.506823497098207,.0583640481026778,Serbia
1996,2,2,2,3,1,2,2,1,4,1,1,2,2,1,2,2,3.11764705882353,0,4.11111111111111,2.22222222222222,65,3.5, ,1.90909090909091,1,8,4,8,5,2,2,1,2,4,2, ,2,2,2,2,3,2,2,3, ,1, ,2,2,2,6,3, , , , ,2,7,6,3,5,11:19:29,1.8,2,3,4,4,4,4,5,5,4,3,4,4,2,2,2,1,1,1,2,15,3.83333333333333,1.36363636363636,2,2,1,1,1,1,1,1,1,2,2,2,3,2,2,2,2,1,2,4,2,4,1,5,5,5,4,4,4,4,5,5,4,5,4.23076923076923,2,2,2,1, ,4,2,5, ,5,4,4,4,2,1,2,5,1, , ,3,1, ,1, , , , , , , , , , ,4,4,4,3,3,5,5,7,2,1,5,1,5,2,1,1,4,1,2,2,3,4,4,3,4,2,1,1,1,1,2,5,1,3,1,5,1,1,2,3,4,2,2,5,3,3,1,1,4,2,3,4,1,2,1,4,2,2,3,2,4,3,3,3,2,2,2.23076923076923,2,2,3,2,2,2,3,2,2,2,3,5,2,2,36.7,36.7,2,36.7,1,8,6,1,-.108022983117384,-.151677586265788,Serbia
1988,1,3,1,4,1,1,4,3,2,2,1,1,1,1,2,1,4,0,3.66666666666667,1.22222222222222,54,4.05555555555556, ,2.09090909090909,1,3,2,4,5,5,5,4,8, ,3, ,5,4,2,2,5,5,2,4,4,8,1,3,1,3,5,3,4,4,6,4,3,6,6,4,4,11:19:18,1.2,2,0,4,5,3,4,5,5,2,3,3,3,3,4,5,1,4,4,4,27,4,1.18181818181818,1,2,1,2,1,1,1,1,1,1,1,1,1,1,2,1,1,1,1,2,2,4,4,3,4,4,3,3,3,4,4,5,5,5,3.92307692307692,1,2,2,1, ,4,4,5, ,2,2,8,8,2,1,2,3,3,1,2,1,2,3,2,projekat,projekat,projekat, , ,1,2,1, , ,2,4,4,4,5,5,3,9,2,2,4,5,2,1,1,3,2,5,2,1,3,4,3,3,3,3,3,3,1,5,4,2,4,2,3,1,2,2,4,4,5,4,1,2,4,3,4,2,3,2,4,3,1,3,3,1,3,4,4,4,4,1,3,1,2,1,3.15384615384615,4,4,4,2,3,3,3,3,3,2,3,5,4,3,36.5,36.5,4,36.5,1,11,6,1,.639727980596659,.36175751996824,Serbia
1995,4,4,3,3,1,2,2,3,3,2,3,4,2,2,2,2,2.82352941176471,0,4.77777777777778,2.11111111111111,58,3.93333333333333, ,2.72727272727273,1,3,2,2,3,2,3,5,3, ,3,3,3,2,3,2,2,5,2,3, ,8,3,3,2,4,3, ,4,3,5,3,4,7,6,1, ,11:17:09,2.4,2,3,4,5,5,5,5,5,5,3,5,5,3,3,4,2,2,3,4,18,2.83333333333333,2.54545454545455,4,3,4,3,3,1,2,3,2,1,2,2,3,1,3,1,1,2,2,4,1,3,3,5,3,5,4,4,4,4,5,4,4,4,4,2,2,2,1, ,4,4,5, ,6,4,6,5,1, ,2,8,1, , ,1,2,3,1, , , , , , , , , , ,2,4,3,2,3,3,3,7,3,2,2,1,4,3,4,2,4,4,3,1,4,5,5,4,4,5,1,1,2,2,2,2,1,3,2,4,2,1,4,3,5,5,2,1,3,4,2,3,2,4,5,3,3,4,5,4,2,3,4,2,4,2,4,4,2,5,2.23076923076923,2,3,3,2,2,1,2,2,2,2,3,5,2,3,36.4,36.4,1,36.4,1,4,6,1,-.357273304355398,.248801796596754,Serbia
1996,4,4,2,4,4,3,4,3,4,3,4,2,2,2,2,2,2.9375,0,2.77777777777778,2.77777777777778,40,3.57142857142857, ,3.54545454545455,1,2,2,2,2,2,4,4,2, ,4, ,2,2,2,5,4,5,3,2, ,4, ,2,2,2,4, ,3, ,6,3,2,6,6,3,5,11:16:08,2,2,0,4,3,3,3,4,4,2,2,2,2,1,3,5,1,3,3,3,13,5.5,2.81818181818182,4,2,4,4,3,2,2,3,2,2,3,3,3,2,3,4,2,2,3,3,2,3,2,4,3,3,2,2,3,2,2,2,3,3,2.61538461538462,2,2,2,1, ,4,2,5, ,2,2,6,6,1, ,2,8,1, , ,2,1, ,1, , , , , , , , , , ,6,5,5,5,6,6,6,6,3,2,2,2,4,4,4,3,3,1,3,2,4,4,3,3,3,3,2,2,2,2,2,3,2,4,3,4,2,3,4,3,3,4,2,4,4,4,3,2,3,4,3,4,3,2,4,4,3,3,3,4,4,3,5,3,3,2,3.38461538461538,3,3,4,3,3,4,3,4,3,3,4,4,3,4,36.2,36.2,1,36.2,1,14,6,1,-.260688804875668,-.0856645011785558,Serbia
1996,4,2,2,4,4,4,5,2,2,4,4,1,3,2,3,3,2.94444444444444,0,3.55555555555556,2.77777777777778,36,2.66666666666667, ,3.36363636363636,1,5,3,2,2,4,5,4,3,3,2,4,2,3,2,2,3,2,2,2,1,4,1,3,3,2,5, , ,1, , ,2,4,4, , ,11:06:24,2.4,2,2,4,4,3,4,4,4,4,3,3,3,3,3,6,2,4,5,5,15,5.66666666666667,3.18181818181818,4,3,4,2,4,3,3,4,2,2,4,3,3,3,4,2,3,2,2,3,2,2,1,4,2,2,2,2,2,3,3,2,2,3,2.30769230769231,2,2,2,1, ,4,4,5, ,3,2,7,7,1, ,2,8,1, , ,1,1, ,1, , , , , , , , , , ,7,5,5,5,6,6,6,6,3,2,4,3,4,2,3,3,3,4,4,4,4,4,3,3,3,3,2,2,2,3,4,4,2,4,2,3,2,2,4,3,4,4,2,5,4,4,4,3,2,3,4,4,2,2,4,4,3,3,4,3,5,3,4,3,1,4,3,3,3,4,3,3,3,3,4,3,3,2,5,2,3,36.5,36.5,1,36.5,1,12,6,1,-.254803727846437,-.921830245616831,Serbia
1996,3,2,1,4,2,4,4,2,3,4,4,2,1,1,4,2,3.88888888888889,0,4.77777777777778,1.55555555555556,65,3.30769230769231, ,3,1,4,4,2,3,8,5,1,8,6,2,6,2,2,4,2,1,8,2,2, ,7,1,2,2,2,3, ,3, ,3, ,3,6,6, ,3,11:01:57,2,2,4,4,4,5,5,5,5,5,4,5,5,3,6,1,1,2,2,6,13,5.5,1.36363636363636,1,2,4,1,1,1,1,1,1,1,1,1,1,1,1,3,1,1,4,1,1,2,4,3,4,4,4,4,5,3,3,4,4,5,3.76923076923077,2,2,2,1, ,4,4,4,1,2,1,5,5,1, ,2,5,1, , ,1,1, ,1, , , , , , , , , , ,7,5,6,4,5,6,6,7,3,1,1,2,5,4,1,1,5,5,2,5,4,5,5,4,2,4,1,2,4,2,5,1,2,5,1,1,2,2,4,5,4,3,4,3,2,2,4,3,2,2,5,2,1,1,2,5,2,2,3,2,5,4,4,3,2,4,2.76923076923077,3,3,5,2,2,2,3,3,2,3,4,5,1,3,36.1,36.1,2,36.1,1,8,6,1,.545566748128965,-.329405123039106,Serbia
1995,3,4,1,3,1,2,2,2,3,2,2,3,3,2,3,3,3.94117647058824,2,5,2.88888888888889,42,3.28571428571429, ,2.27272727272727,1,4,2,2,8,5,4,2,5,4,5, ,5,3,1,3,8,4,2,2, ,8,1,2,2,4,5,3, ,1, , ,4,6,4,1,3,11:01:50,2.8,2,2,4,5,5,5,5,5,5,5,5,5,5,7,7,1,5,4,5,21,4.83333333333333,3.09090909090909,4,4,2,4,3,2,4,4,2,3,2,4,3,2,4,2,2,4,1,4,1,4,3,5,5,5,4,5,5,5,4,4,5,5,4.53846153846154,2,2,2,1, ,4,4,5, ,3,4,6,6,1, ,2,8,1, , ,1,1, ,2,Gradski hor, , , , ,5, , , , ,6,4,5,3,6,5,5,6,3,2,2,2,5,4,2,4,3,2,3,2,4,4,4,4,4,4,3,2,1,1,2,4,1,5,2,4,4,4,1,3,4,5,3,4,4,4,1,1,4,4,4,4,4,1,4,4,4,4,4,1,4,4,3,4,3,4,2.46153846153846,2,3,3,3,2,3,2,3,2,2,3,4,2,2,36.3,36.3,1,36.3,1,7,6,1,.589877916349057,-.349716841527485,Serbia
1996,2,3,2,3,2,2,3,3,4,2,2,2,2,4,3,2,3.61111111111111,0,3.77777777777778,3.22222222222222,45,4.5, ,2.54545454545455,1,4,4,4,4,4,3,5,4,4,4,4,3,2,3,3,3,4,3,5,4,5,4,5,4,3,5,5,5,3,5,4,3,6,5,5,5,10:58:47,2.6,2,0,4,4,4,4,4,4,4,3,4,3,4,6,4,2,4,4,6,16,3.33333333333333,2.81818181818182,4,4,4,3,4,1,3,2,1,1,4,4,4,3,4,2,2,3,3,4,2,3,2,2,4,3,1,2,4,4,3,3,3,4,2.92307692307692,2,2,2,1, ,4,4,5, ,5,4,5,5,1, ,2,8,1, , ,2,1, ,1, , , , , , , , , , ,3,4,3,3,4,3,3,6,3,4,4,4,3,2,3,3,2,4,4,3,2,3,3,3,3,3,3,3,3,4,4,2,4,3,3,2,2,2,4,4,3,2,2,4,4,4,3,2,2,3,4,4,2,3,3,4,3,3,4,4,3,3,4,2,2,2,3.15384615384615,3,4,4,3,3,3,2,3,3,3,4,4,3,3,36.3,36.5,1,36.4,1,12,6,1,.310163666959729,.772505604955463,Serbia
1991,2,4,1,4,1,2,1,2,4,1,1,2,2,2,3,4,2.88235294117647,0,3.88888888888889,2.22222222222222,88,2.42857142857143, ,2.09090909090909,1,5,2,2,4,7,5,2,1,3,2, ,2,3,2,2,4,2,1,3,1,5, ,2,1,1,3, ,1,1,7, ,1,3,4,1, ,10:56:39,2.6,2,0,4,5,4,4,5,5,3,2,4,3,3,4,3,2,4,4,3,16,4.66666666666667,1.81818181818182,2,2,2,3,1,1,3,1,1,1,3,2,4,3,3,2,1,1,1,3,2,5,4,4,2,4,3,5,4,4,4,2,4,4,3.76923076923077,1,2,2,1, ,4,4,5, ,5,3,6,6,1, ,2,3,1, , ,2,1, ,1, , , , , , , , , , ,5,5,6,4,5,3,5,6,2,2,4,4,4,1,2,4,2,5,2,2,4,4,3,4,3,3,2,2,1,5,2,2,4,1,2,2,3,3,4,3,4,4,2,5,5,4,3,2,3,4,4,2,1,5,4,2,3,3,4,2,4,2,5,3,5,1,2.07692307692308,3,2,2,2,2,1,3,3,2,2,1,5,2,2,36.8,36.9,3,36.85,1,9,6,1,-.307423240107796,-1.14187386257427,Serbia
1996,3,2,1,2,4,3,3,2,3,2,4,4,2,2,2,1,5.05555555555556,0,3.88888888888889,1.66666666666667,45,3.375, ,2.63636363636364,1,7,5,2,7,8,7,8,8,3,2,3,2,8,2,2,7,8,2,3,1,8,1,2,2,2, ,5,3,4,3,5,2,6,6,1, ,10:55:22,2.2,2,2,4,5,5,3,5,5,3,3,3,3,4,3,4,1,2,3,2,11,3.16666666666667,2.63636363636364,4,2,4,4,3,1,2,2,2,2,3,1,2,1,2,2,2,1,1,3,1,3,2,3,4,3,1,1,2,3,2,4,3,3,2.61538461538462,1,2,2,1, ,4,4,4,1,3,2,3,1,2,1,2,8,1, , ,1,1, ,1, , , , , , , , , , ,6,2,2,3,4,2,2,8,2,2,3,1,4,3,2,4,3,5,2,3,4,5,4,3,4,3,2,3,1,2,4,4,2,3,2,1,2,3,2,4,4,4,2,2,2,3,4,2,2,3,4,4,3,2,4,4,3,3,4,3,4,4,3,2,4,2,2.84615384615385,2,5,3,2,4,3,3,2,2,3,4,3,2,2,35.5,35.7,2,35.6,1,12,6,1,1.53425968903976,-.267200485168445,Serbia
1996,1,1,2,1,2,1,2,2,1,1,1,1,1,2,2,1,3.05882352941176,0,3.44444444444444,3.55555555555556,78,2, ,1.36363636363636,1,5,1,2,5,7,3,2,8,1,1, ,2,2,1,1,8,2,1,1,1,3,1,3,1,1, ,5,1,1, ,1,1,4,5,1, ,10:53:12,1.4,2,8,4,4,4,4,5,4,2,2,3,3,5,7,6,1,6,6,7,15,1.66666666666667,3.45454545454545,4,4,4,5,3,2,2,4,2,3,5,4,4,4,4,2,2,4,4,4,1,1,1,5,5,4,4,1,1,3,2,5,5,3,3.07692307692308,2,2,2,1, ,4,2,4,1,2,2,8,8,1, ,2,8,1, , ,1,1, ,1, , , , , , , , , , ,2,2,2,1,2,1,2,7,3,2,2,3,4,4,2,3,3,4,4,4,3,5,4,4,5,4,1,2,1,1,3,3,2,4,1,3,2,4,2,3,4,4,3,2,4,3,2,1,3,2,3,4,4,1,4,4,4,4,4,1,4,4,4,4,5,5,2.69230769230769,3,3,4,2,2,2,2,3,2,3,4,4,3,2,36.7,36.8,3,36.75,1,9,6,1,-.157873047364987,-1.53795237309766,Serbia
1991,2,4,2,4,2,2,4,2,4,2,1,2,4,2,2,2,2.875,0,3.66666666666667,1.33333333333333,95,5.64705882352941,15,2.63636363636364,1,2,2,2,4,2,2,2,8, ,2, ,2,2,2,8,2,2,2,8,5,5,3,8,8,5,5,5,6,6,6,6,5,6,6, ,3,10:49:27,2.4,2,0,4,4,4,2,5,3,4,3,4,4,3,3,4,3,2,3,3,16,3.5,1,1,1,1,1,1,1,1,1,1,1,1,1,1,1,1,1,1,1,1,4,1,2,5,3,2,2,4,4,4,5,3,2,2,3,3.15384615384615,1,1,1,1, ,4,4,4,1,4,3,5,5,2,1,2,2,1, , ,1,1, ,1, , , , , , , , , , ,4,3,4,3,4,3,3,8,2,3,1,2,5,2,4,5,2,2,3,2,1,2,2,3,2,2,3,2,2,2,2,2,1,3,4,4,2,2,2,2,4,1,1,1,2,1,4,4,2,2,5,3,1,2,3,2,2,2,2,4,2,3,1,1,3,4,2.53846153846154,2,3,3,3,2,2,3,3,2,2,3,4,2,3,36.4,36.27,2,36.335,1,11,6,1,-.313654498138746,1.83259808900337,Serbia
1986,3,3,1,3,2,2,4,2,2,2,2,2,3,1,2,1,2.0625,0,3.55555555555556,2.44444444444444,96,3.9, ,2.36363636363636,1,2,2,2,1,2,4,2,2, ,1, ,2,2,2,2,4,1,2,2, ,2, ,5,3,5,4,5, , , , ,2,7,4, , ,10:46:43,1.8,2,4,4,5,4,4,4,4,3,2,3,3,4,4,2,1,4,5,4,19,2.33333333333333,2.09090909090909,2,2,2,2,2,2,3,2,2,2,2,3,3,2,3,2,2,2,2,3,2,5,5,5,3,5,5,2,5,4,5,3,5,4,4.30769230769231,2,2,2,1, ,4,4,5, ,1, ,5,4,1, ,2,6,3,1,8,1,1, ,1, , , , , , , , , , ,3,2,2,2,2,3,2,6,2,2,1,1,5,3,4,2,4,3,2,2,3,4,3,3,4,4,2,2,4,2,2,4,2,3,2,3,3,3,3,2,4,3,2,4,3,3,2,4,2,3,4,3,3,2,4,4,4,4,4,3,4,2,3,2,3,2,2.38461538461538,2,2,3,2,2,2,2,4,2,2,3,3,3,2,36.8,36.8,2,36.8,1,4,6,1,-1.00220851055876,.217995690222712,Serbia
1996,4,4,4,2,4,4,4,4,4,4,4,1,4,1,4,1,2.58823529411765,8,4.44444444444444,3.66666666666667,44,2.4, ,3.81818181818182,1,4,1,2,1,1,5,5,1, ,1,4,8,2,1,2,4,1,1,1, ,4, ,1,2,1,3,3, , , , ,1,4,4, , ,10:45:05,2.2,2,8,4,5,5,5,5,5,4,3,4,4,3,4,4,2,6,6,6,29,3.5,3.09090909090909,4,4,3,3,3,3,3,3,2,3,3,4,4,4,4,3,3,4,3,4,1,2,5,5,5,2,1,1,5,4,3,3,3,5,3.38461538461538,2,2,1,1, ,4,4,4,2,5,4,5,5,2,8,2,6,1, , ,5,1, ,1, , , , , , , , , , ,5,4,4,2,3,3,3,8,5,3,4,4,3,2,4,4,2,4,3,4,4,5,5,4,5,5,1,1,2,4,4,3,4,2,1,2,2,4,3,3,4,4,2,2,4,5,2,2,3,2,4,4,4,3,5,5,5,5,5,2,4,3,5,2,4,4,2.76923076923077,3,4,3,3,2,2,2,3,3,3,3,4,2,3,35.5,35.6,2,35.55,1,12,6,1,-.55667356134581,-1.16827909660916,Serbia
1996,1,2,1,2,2,2,2,1,4,1,2,2,1,1,2,5,2.25,0,4.22222222222222,2,45,3.26666666666667, ,1.81818181818182,1,2,2,2,5,2,4,2,4, ,2, ,2,3,1,1,1,2,1,2, ,5,3,3,2,2,6,3,3, ,3,3,2,6, ,3,3,10:38:16,2.2,1,5,4,5,4,4,5,5,4,3,4,4,4,6,4,1,2,2,4,22,4.33333333333333,1.72727272727273,2,1,3,2,2,1,2,1,1,1,3,1,3,3,2,2,1,3,1,2,2,4,3,4,5,4,1,3,2,4,2,4,5,3,3.38461538461538,1,2,2,1, ,4,4,5, ,6,6,8,8,1, ,2,8,1, , ,3,1, ,1, , , , , , , , , , ,4,5,5,4,4,4,4,6,3,5,5,4,2,1,5,4,1,5,4,2,3,4,4,4,4,4,2,2,5,5,5,2,4,4,2,1,3,2,4,3,4,3,2,4,5,5,5,1,2,3,4,4,3,3,4,4,2,2,1,2,3,2,3,2,2,3,2.53846153846154,3,4,3,2,2,2,2,3,2,2,4,4,2,2,36.9,37.1,1,37,1,12,6,1,-.843311430769527,-.36732033088408,Serbia
1994,2,2,1,2,2,4,4,1,1,1,2,2,2,2,3,3,3.16666666666667,0,4.55555555555556,2.11111111111111,65,3.23076923076923, ,2,1,3,2,2,2,5,3,3,2,6,1,3,1,1,4,8,2,8,1,4, ,4, ,4,2,8,3, ,1,1,1,1,8,4, ,1, ,10:37:43,2.4,2,1,4,4,5,4,5,5,5,4,4,5,4,3,5,1,1,3,3,23,6.33333333333333,1.81818181818182,4,1,1,3,3,2,1,1,1,2,1,2,1,1,2,1,1,4,3,4,2,4,2,3,2,3,2,3,2,3,4,2,3,4,2.84615384615385,2,2,2,1, ,4,4,5, ,6,6,5,4,1, ,2,8,1, , ,3,1, ,2,Politička stranka(ne bih da navodim njeno ime), , , , ,5, , , , ,6,7,7,7,6,5,5,6,2,1,5,3,2,5,1,2,3,5,5,4,3,4,4,4,5,3,1,1,1,3,5,2,3,2,2,1,4,4,4,4,4,3,1,4,3,5,5,1,3,1,3,4,1,1,3,4,1,1,4,5,5,2,3,3,3,2,2.61538461538462,3,3,3,1,2,2,2,3,3,2,4,5,4,2,36.1,36.3,2,36.2,1,8,6,1,-.0664812629110485,-.400496137748433,Serbia
1997,4,4,3,4,3,4,4,3,3,3,4,2,4,2,3,2,4.11764705882353,0,3.22222222222222,4,56,3.58823529411765,15,3.54545454545455,1,5,4,4,8,4,4,2,5, ,2,4,4,4,4,5,2,4,5,4,3,4,6,3,5,4,3,4,3,3,4,3,2,4,3, ,3,10:37:35,2.6,2, ,4,4,3,3,3,3,4,3,3,3,3,3,3,2,1,2,2,21,4.5,3.63636363636364,4,4,3,4,3,3,4,4,3,4,4,4,4,3,4,4,5,4,3,5,1,2,2,2,3,3,2,4,1,1,4,2,2,5,2.53846153846154,1,1,2,1, ,4,4,5, ,2,2,6,6,1, ,2,8,1, , ,1,1, ,2,Kosarkaski klub, , , , ,10, , , , ,5,5,5,4,6,2,4,6,3,2,4,2,4,2,3,4,3,4,3,3,3,4,3,3,4,4,4,3,2,3,4,4,2,2,3,2,4,3,3,3,4,3,4,4,4,3,4,3,2,3,3,3,3,2,3,4,3,3,5,4,5,2,4,3,5,3,2.92307692307692,2,4,3,4,2,2,3,3,3,2,3,4,4,3,36.5,36.5,1,36.5,1,6,6,1,.739428109091865,-.0701320105697953,Serbia
1992,2,2,1,2,1,1,2,1,2,2,2,2,2,2,4,2,4.22222222222222,0,3.88888888888889,2.22222222222222,56,3.375,8,1.63636363636364,1,3,3,4,5,7,5,2,5,4,4,4,5,5,4,5,4,4,3,1, ,7,1,3,2,2,3,3,3,3,4,3,1,7,7, ,4,10:37:22,2.4,2,3,4,4,4,4,5,4,3,3,4,4,4,4,5,1,3,4,4,14,2.5,2.36363636363636,3,4,4,2,2,1,1,1,2,2,4,2,3,3,2,2,1,2,2,3,2,4,5,4,4,3,5,4,4,4,3,4,3,5,4,2,1,2,1, ,4,4,5, ,4,2,6,6,1, ,2,8,1, , ,1,1, ,1, , , , , , , , , , ,2,2,3,3,3,2,3,6,3,3,2,2,5,4,3,2,3,2,2,3,3,4,4,3,4,4,2,2,2,3,2,4,2,4,2,3,1,2,3,2,4,4,1,5,3,4,2,2,3,2,4,4,1,2,4,4,1,3,4,2,5,4,2,4,3,4,2.23076923076923,2,4,2,2,2,2,2,2,2,2,3,4,2,2,36.8,36.8,2,36.8,1,6,6,1,.828050445532048,-.267200485168445,Serbia
1995,2,1,1,2,1,1,1,2,4,1,2,1,2,1,1,2,1.88235294117647,0,4,2.11111111111111,65,3.41666666666667, ,1.63636363636364,1,1,1,1,4,4,1,2,1, ,1,5,1,1,1,1,5,1,1,3,1,7,1,2,4,2, , , , ,1, ,5,7,7, ,1,10:35:11,1.4,2,0,4,4,4,4,5,5,3,3,4,4,3,3,2,1,2,1,3,12,2.83333333333333,2.90909090909091,4,4,2,4,4,2,3,3,2,1,3,2,3,2,3,1,1,2,1,4,1,4,5,5,5,4,4,5,4,5,4,3,5,5,4.46153846153846,2,2,2,1, ,4,4,5, ,3,1,5,3,1, ,2,5,1, , ,3,1, ,1, , , , , , , , , , ,2,3,3,3,3,3,3,6,2,3,3,3,5,3,3,3,3,4,2,2,3,4,2,4,4,3,1,1,1,3,3,3,3,3,1,4,1,1,4,4,4,4,1,1,4,3,3,2,4,3,4,5,2,3,3,4,4,4,4,3,5,2,3,3,3,3,1.61538461538462,1,3,3,2,1,1,1,1,2,1,3,5,1,1,36.8,37,1,36.9,1,10,6,1,-1.15487433231704,-.228692852200893,Serbia
1996,3,2,1,3,2,2,4,2,2,2,2,2,2,2,2,1,3.66666666666667,0,3.33333333333333,3.22222222222222,53,3.54545454545455, ,2.27272727272727,1,3,3,3,5,5,5,2,8,3,2,5,2,2,5,2,2,8,1,2, ,8, ,2,2,2, , ,3, ,3,3,2,6,6, , ,10:30:15,1.8,2,1,4,4,3,4,4,4,4,2,3,2,4,4,5,1,2,3,4,36,5.66666666666667,3.18181818181818,4,4,4,3,2,2,4,2,4,2,4,3,4,4,4,4,2,2,2,4,2,2,2,4,3,4,2,2,4,4,2,4,4,4,3.15384615384615,2,2,2,1, ,4,4,5, ,8,8,8,8,1, ,2,8,1, , ,1,2,7,2,Klub studenata pedagogije, , , , ,7, , , , ,6,6,6,6,5,5,5,7,4,3,4,4,4,2,4,2,2,5,2,2,5,4,4,5,3,3,2,2,4,4,4,2,3,2,2,1,3,2,4,2,5,4,4,5,2,4,3,1,2,1,5,2,4,2,4,4,2,3,5,1,4,4,2,2,3,5,2.53846153846154,3,3,3,2,2,2,3,3,3,2,3,5,2,2,36.3,36.7,1,36.5,1,6,6,1,.357244283193576,-.109669259392095,Serbia
1995,1,3,2,3,3,2,2,3,2,2,1,1,2,1,2,1,2.11111111111111,0,4,1.55555555555556,65,1.88888888888889,10,2.18181818181818,1,4,2,1,1,4,1,2,2,1,1,1,1,4,4,2,1,5,1,1,1,3,1,4,1,1,4,1,1,1,1,1,1,6,4,1,1,10:29:24,1.4,2,4,4,4,4,4,5,5,3,2,4,5,5,7,7,1,7,7,8,19,5.5,2.27272727272727,4,3,3,3,2,1,2,2,1,1,3,2,2,2,2,1,1,2,1,1,1,4,3,5,3,3,2,2,2,4,2,3,4,3,3.07692307692308,2,1,2,1, ,4,4,5, ,5,5,7,6,1, ,2,8,1, , ,3,1, ,1, , , , , , , , , , ,6,6,4,4,7,6,5,6,3,1,5,1,5,5,2,2,5,2,1,3,4,5,4,1,4,4,1,1,1,1,2,5,1,4,1,3,4,3,3,5,3,5,4,4,3,3,3,2,5,3,2,5,4,1,5,5,4,4,5,2,4,3,5,5,3,2,2.69230769230769,2,4,3,2,4,2,3,2,3,2,4,4,2,2,36.2,36.6,2,36.4,1,2,6,1,-.961012971354145,-1.64063939434447,Serbia
1996,1,1,1,2,1,1,1,1,1,1,2,3,1,1,2,3,3.29411764705882,1,3.77777777777778,1.88888888888889,44,3.66666666666667,5,1.18181818181818,1,2,2,2,2,3,5,3,3, ,2,3,8,2,2,5,5,5,2,3,3,2, ,2,5,2, , , , ,5,3,3,7,6, ,3,10:27:13,2,2,2,4,5,4,4,5,5,4,2,1,4,5,7,6,3,5,3,5,12,5.33333333333333,2.36363636363636,4,4,2,4,1,1,1,1,1,3,4,2,2,1,1,1,2,3,1,4,2,3,4,4,2,3,4,3,4,4,4,3,4,4,3.53846153846154,2,1,2,1, ,4,4,5, ,5,3,4,3,1, ,2,8,1, , ,1,1, ,1, , , , , , , , , , ,7,6,2,6,6,5,6,6,2,4,2,2,5,4,2,2,4,2,2,2,5,5,4,4,5,4,1,2,1,1,2,2,2,2,1,4,3,2,4,4,5,5,2,1,4,2,4,2,2,3,4,3,1,1,5,5,5,5,5,2,5,4,2,4,3,4,2.84615384615385,3,3,4,3,2,2,3,3,3,2,4,4,2,3,36.5,36.7,2,36.6,1,12,6,1,.0415272096254245,.00235294560442019,Serbia
1996,3,3,2,3,2,2,2,2,4,3,3,3,2,2,4,2,3.27777777777778,0,4.22222222222222,3,61,4.11111111111111, ,2.63636363636364,1,2,3,1,3,8,3,5,2,5,2,5,2,2,2,3,2,4,5,3, ,8, ,3,3,2, , ,3, , , ,2,7,6, , ,10:25:59,2.6,2,3,4,4,3,5,4,4,4,4,5,5,1,5,6,3,3,3,4,15,3.16666666666667,3.18181818181818,4,4,4,4,3,2,2,2,3,3,4,3,4,2,4,3,2,3,2,4,1,2,2,4,3,3,3,2,3,3,3,3,3,3,2.84615384615385,2,2,2,1, ,4,4,4,2,3,1,4,4,1, ,2,8,1, , ,3,1, ,1, , , , , , , , , , ,5,3,4,3,2,2,3,7,2,3,3,2,4,2,1,2,2,5,4,3,3,4,3,3,4,3,1,2,2,4,4,4,2,4,1,1,1,4,4,4,4,4,2,2,4,4,1,2,4,3,4,4,2,2,4,5,3,3,4,3,5,4,4,3,1,4,3.61538461538462,4,4,5,3,3,3,3,5,3,3,4,5,3,4,37.3,37.1,1,37.2,1,1,6,1,.0276799695566459,.413101030591643,Serbia
1996,4,2,1,4,4,1,4,2,2,4,4,2,3,3,3,2,1.5,0,5,3.44444444444444,61,1.71428571428571, ,2.90909090909091,1,1,1,1,2,4,1,1,1,1,1,1,1,1,1,2,1,5,1,1, ,3,1,2,1,1, ,1,1,1, , ,1,5,4,1,1,10:22:58,2.6,2,1,4,5,5,5,5,5,5,5,5,5,4,4,5,1,3,4,5,19,4.5,3.63636363636364,4,4,4,4,5,3,3,3,3,3,4,3,3,3,3,4,2,4,5,4,1,3,3,5,5,4,3,3,4,4,4,5,2,3,3.69230769230769,2,2,2,1, ,4,4,4,4,6,3,5,5,1, ,2,8,1, , ,2,1, ,1, , , , , , , , , , ,4,4,5,4,5,5,5,7,3,4,4,4,3,2,4,4,2,5,4,4,5,5,5,3,5,5,1,1,4,4,5,2,4,1,1,2,3,3,5,5,4,5,2,5,4,4,2,1,4,2,4,3,4,2,4,4,5,3,4,1,3,5,3,3,2,5,3.38461538461538,3,4,3,4,3,3,3,4,3,4,4,3,2,4,35.9,36.3,2,36.1,1,1,6,1,-1.47889974992646,-1.80200471344659,Serbia
1996,4,4,2,4,4,2,4,4,4,3,4,2,2,2,2,2,4.11764705882353,0,5,4.33333333333333,61,3.76923076923077, ,3.54545454545455,1,3,4,2,5,8,5,3,8, ,2,5,2,3,2,5,3,8,2,2, ,8, ,2,2,2,6,4, , ,3, ,2,6,6,3,3,10:22:11,2,2,10,4,5,5,5,5,5,5,5,5,5,5,6,3,2,4,4,4,17,5,3.45454545454545,5,4,4,3,4,2,4,4,1,2,5,4,4,4,4,5,4,4,5,5,2,2,1,4,3,3,2,3,2,2,3,3,4,4,2.76923076923077,2,2,2,1, ,4,4,5, ,4,3,8,8,1, ,2,8,1, , ,1,1, ,1, , , , , , , , , , ,5,5,5,5,5,5,5,6,3,2,4,2,4,4,2,2,4,5,4,4,4,4,4,2,4,4,2,1,2,3,4,4,2,3,2,2,2,3,4,3,4,4,4,4,4,5,1,2,4,3,4,4,2,2,5,5,4,4,4,2,4,4,4,4,1,2,3.07692307692308,2,4,4,3,3,2,3,3,3,3,4,4,2,4,36.2,36.2,1,36.2,1,1,6,1,.739428109091865,.0971409652168563,Serbia
1996,2,2,1,2,2,2,2,2,2,2,2,2,2,2,3,2,2.4375,0,4.22222222222222,3.66666666666667,83,3.92857142857143, ,1.90909090909091,1,2,2,3,2,3,2,2,2, ,5, ,2,1,2,2,5,2,2,5,3,8, ,3,5,2,3, ,3,3,3,3,2,6,6, , ,10:19:56,2.2,2,8,4,5,5,4,5,4,4,3,4,4,4,6,5,2,3,3,6,18,5.66666666666667,2.81818181818182,5,3,4,4,4,2,2,1,1,1,4,4,4,3,4,4,4,3,4,3,1,3,4,4,3,4,3,3,2,4,3,3,2,4,3.23076923076923,2,2,2,1, ,4,4,5, ,6,3,7,7,2,1,2,8,1, , ,2,1, ,1, , , , , , , , , , ,7,5,5,5,6,6,6,7,3,2,4,2,5,2,4,3,2,2,2,3,4,4,4,2,4,4,2,2,4,3,2,3,2,2,2,4,3,3,2,4,3,4,1,4,4,4,1,3,2,4,4,5,3,2,4,4,4,3,4,3,3,3,3,2,4,3,2.15384615384615,2,4,3,2,2,2,1,2,2,2,3,4,2,1,37.1,37,1,37.05,1,4,6,1,-.684414350980293,.244400924257605,Serbia
1996,4,4,1,4,2,1,4,4,4,4,2,3,3,2,4,2,3,0,3.77777777777778,1.33333333333333,45,5.55555555555556, ,3.09090909090909,1,1,2,1,1,1,8,1,1,7,1,6,1,1,4,8,1,8,1,1,7,1,7,8,1,4,7,7,7,7,7,7,1,7,7,7,7,10:17:40,2.8,2,0,4,4,4,4,4,4,3,3,4,4,1,4,4,3,3,4,4,8,5,2.18181818181818,4,2,4,2,2,1,1,2,1,1,4,2,1,1,2,1,2,1,1,1,2,3,3,2,3,3,4,2,3,2,4,3,2,4,2.92307692307692,2,2,2,1, ,2,2,5, ,1, ,4,4,1, ,2,4,1, , ,1,1, ,1, , , , , , , , , , ,6,5,6,5,4,4,5,5,0,1,4,1,3,3,3,2,2,5,4,3,3,3,3,3,3,2,1,1,2,5,5,2,1,1,1,1,3,2,5,5,3,5,3,3,3,3,3,2,4,3,3,4,3,1,5,4,3,3,4,3,3,3,3,3,2,2,2.92307692307692,2,2,4,3,4,3,3,4,3,3,3,5,2,2,36.3,36.5,2,36.4,1,12,6,1,-.20772311161259,1.74803230680012,Serbia
1993,4,3,3,3,3,3,4,3,3,3,3,3,3,2,2,2,3.38888888888889,0,4.33333333333333,2.44444444444444,88,4.16666666666667, ,3.18181818181818,1,3,3,4,4,4,4,2,3,5,2,3,3,4,3,3,5,3,3,4,3,5,3,3,4,4,4,5,3,3,5,5,3,6,4,5,6,10:16:44,2.4,2,2,4,4,4,4,5,5,4,4,4,5,4,6,5,1,4,4,6,35,5,1.81818181818182,3,2,2,2,2,2,1,1,2,1,2,2,3,3,3,2,2,2,3,2,1,4,4,5,4,2,3,1,4,4,4,3,4,4,3.53846153846154,2,2,2,1, ,4,4,5, ,8,5,7,5,1, ,2,8,3,8,8,2,1, ,2,Studentska grupa, , , , ,2, , , , ,6,5,5,4,5,5,5,7,3,3,3,4,4,3,3,3,3,5,3,3,4,3,3,3,3,3,3,2,3,4,3,3,3,2,3,1,4,2,4,3,4,3,3,2,3,3,4,3,3,3,4,3,3,3,4,3,2,3,3,3,4,3,3,3,3,3,2.53846153846154,2,4,2,3,2,2,2,3,2,2,3,4,3,3,36.5,36.6,2,36.55,1,9,6,1,.12184120202434,.464444541215046,Serbia
1996,3,4,1,2,1,1,2,2,1,2,1,1,1,1,1,1,3.88235294117647,0,4.77777777777778,2.77777777777778,65,2.05882352941176, ,1.81818181818182,1,5,1,2,5,4,7,8,3,5,1, ,1,2,4,1,8,8,1,1,1,7,1,1,1,1,1,1,1,1,1,1,1,7,7,1, ,10:15:53,1,2,0,4,5,5,5,5,5,5,5,5,3,4,6,7,1,6,6,6,25,6,2.09090909090909,3,2,3,4,1,1,1,1,3,1,3,2,5,3,3,2,1,1,4,4,1,4,4,2,3,5,2,2,3,3,4,3,5,5,3.46153846153846,2,2,2,1, ,4,4,4,1,4,2,4,4,1, ,2,8,1, , ,1,2,3,2,Plesni klub,Demonstratori Centra za promociju nauke, , , ,10,2, , , ,6,6,6,6,6,6,6,8,2,4,2,2,5,3,4,4,3,4,4,3,5,5,4,2,5,3,1,1,1,3,2,2,3,1,1,2,2,4,4,2,4,5,3,5,5,2,1,2,3,3,5,4,5,1,3,5,4,4,4,1,4,5,4,5,1,5,3.07692307692308,3,4,5,2,2,2,2,5,2,3,4,5,2,4,36.4,36.3,2,36.35,1,10,6,1,.540027852101454,-1.483588655967,Serbia
1996,3,2,1,3,4,3,3,4,2,2,5,1,2,2,1,2,3.38888888888889,0,4,3.66666666666667,51,3.7, ,2.90909090909091,1,2,2,2,5,8,4,2,5,3,2,3,4,4,4,2,7,1,1,2, ,8, ,2,2,2,3, , , , , ,1,6,7, ,4,10:15:10,1.6,2,2,4,5,4,4,5,5,3,2,4,4,4,4,6,2,4,4,4,14,4.33333333333333,3.90909090909091,5,5,4,5,4,4,3,4,2,3,4,4,4,4,5,2,3,3,4,4,2,3,5,4,4,4,1,5,5,4,3,4,3,5,3.84615384615385,2,2,2,1, ,4,2,5, ,8,3,7,6,1, ,2,8,1, , ,2,1, ,1, , , , , , , , , , ,6,5,5,3,4,3,4,6,3,4,3,2,4,2,3,5,2,4,3,1,5,4,5,3,3,5,1,1,1,3,4,3,3,1,3,2,3,3,4,5,4,5,1,2,3,3,4,4,3,3,4,4,3,4,1,4,3,4,4,4,3,3,2,3,3,2,2.92307692307692,3,4,5,2,3,2,2,1,4,3,5,5,1,3,36.6,36.8,1,36.7,1,5,6,1,.12184120202434,.0331590519784622,Serbia
1994,1,1,1,2,3,2,2,1,1,2,2,2,1,1,3,1,5.22222222222222,0,3.88888888888889,3.44444444444444,95,3, ,1.63636363636364,1,7,8,2,7,7,8,7,5,6,2,6,7,2,2,5,5,7,1,2,1,4,1,3,2,5,3,3, , ,1, ,1,6,6, ,4,10:10:14,1.6,2,2,4,5,3,5,5,4,4,1,4,4,3,2,3,1,2,2,3,20,5,4,4,5,5,5,5,2,4,4,3,3,4,3,5,3,5,2,1,5,2,5,1,2,1,3,4,3,1,1,3,3,1,1,2,2,2.07692307692308,2,2,2,1, ,4,4,5, ,6,4,7,6,1, ,2,6,1, , ,2,1, ,2,Udruzenje studenata, , , , ,3, , , , ,5,6,4,4,6,5,5,6,3,2,5,4,3,2,2,5,4,5,5,5,3,5,3,4,3,3,1,2,4,4,4,3,3,2,1,1,2,2,4,4,4,5,5,4,5,2,2,2,2,4,5,3,1,1,5,5,2,1,5,2,4,5,4,1,1,2,2.92307692307692,3,4,4,3,3,2,4,4,2,2,4,5,1,2,37.2,36.8,2,37,1,6,6,1,1.6755015377413,-.613769181876414,Serbia
1996,5,5,1,5,4,4,5,4,5,4,3,1,4,2,3,1,4.16666666666667,0,4.88888888888889,4.66666666666667,51,4.33333333333333, ,4.09090909090909,1,4,4,4,4,4,4,4,4,4,4,3,4,4,1,7,4,8,4,4,4,4,4,4,4,4,7,7,4,4,4,4,4,4,4,4,4,10:09:15,2.2,2, ,4,5,5,5,5,5,5,4,5,5,1,2,1,1,2,2,2,11,4.5,3.18181818181818,5,5,5,5,5,1,1,1,1,1,5,5,5,3,5,5,4,5,5,5,2,2,3,2,3,1,2,1,5,1,4,3,1,4,2.46153846153846,2,2,2,1, ,4,2,5, ,4,2,5,5,1, ,2,8,1, , ,1,1, ,1, , , , , , , , , , ,5,4,4,4,5,5,5,6,3,1,1,1,5,5,3,1,5,2,2,3,1,5,5,4,3,4,3,1,1,1,1,5,1,5,3,3,1,1,5,5,3,1,1,1,5,4,2,2,2,4,1,5,1,1,5,5,1,1,4,3,5,4,2,1,1,5,3.23076923076923,4,3,4,1,1,3,3,4,4,5,4,5,3,3,36.8,36.8,2,36.8,1,5,6,1,.780969829298201,.618475073085254,Serbia
1992,2,2,3,2,2,1,5,1,5,3,3,1,1,1,2,1,1.05555555555556,0,2.55555555555556,2.11111111111111,50,1.44444444444444, ,2.63636363636364,1,1,1,1,1,1,1,1,1,1,1,1,1,1,1,1,1,2,1,1,1,4,1,1,1,1,1,1,1,1,1,1,1,3,4,1,1,10:04:44,1.2,2,0,4,5,4,3,5,1,2,1,1,1,5,4,5,1,2,2,3,23,3,2.09090909090909,3,3,3,3,1,1,1,1,3,1,3,2,1,1,3,3,1,2,1,5,1,3,4,4,4,4,2,3,4,2,3,4,5,5,3.61538461538462,2,2,2,1, ,4,4,5, ,7,6,8,7,1, ,2,8,3,1,2,1,2,1,1, , , , , , , , , , ,3,4,6,1,2,2,4,8,3,2,4,3,3,4,3,1,1,5,2,1,5,5,3,2,5,1,1,3,4,3,4,4,4,5,1,2,5,3,5,4,3,5,1,2,4,3,5,3,1,3,5,1,5,1,5,5,5,3,1,3,5,1,3,1,3,4,2.07692307692308,1,4,3,2,1,1,2,2,2,2,3,5,2,2,36.8,36.8,2,36.8,1,8,6,1,-1.85554467979724,-2.05138747933169,Serbia
1996,3,3,1,3,2,1,4,1,1,4,1,2,1,2,2,2,3.88888888888889,0,4.88888888888889,3.22222222222222,70,4.07142857142857, ,2.18181818181818,1,4,4,4,5,8,8,3,5,3,2,4,2,5,2,2,2,5,2,2, ,8, ,2,3,4,4,3,3, ,5,3,5,6,6, ,3,10:01:47,1.8,2,0,4,5,5,5,5,5,5,4,5,5,5,6,6,1,4,3,6,17,6.33333333333333,2.81818181818182,4,4,3,3,2,1,3,3,2,3,3,3,4,1,4,3,3,3,4,4,2,2,2,5,3,2,1,1,2,2,3,5,4,4,2.76923076923077,2,2,2,1, ,4,4,5, ,5,3,4,3,1, ,2,7,1, , ,1,2,5,1, , , , , , , , , , ,6,7,7,5,7,6,6,7,3,2,3,3,3,4,3,2,4,4,3,2,4,4,4,4,3,3,2,2,4,3,4,3,3,2,2,2,2,3,2,2,4,4,4,4,4,4,2,2,2,3,4,3,3,2,3,4,4,3,4,2,4,4,2,2,3,2,3.69230769230769,4,5,5,3,4,4,3,5,2,2,2,5,4,5,36.8,36.7,4,36.75,1,1,6,1,.545566748128965,.376427094432069,Serbia
1997,3,1,1,3,1,2,2,1,1,2,1,4,2,1,1,3,2.75,0,5,2.11111111111111,45,2.93333333333333, ,1.63636363636364,1,2,2,2,5,2,2,5,5, ,5, ,2,1,1,2,1,5,2,2,1,8,1,1,1,1, ,1,5,1,6, ,2,6,7,1, ,9:59:24,2.2,2,4,4,5,5,5,5,5,5,5,5,5,5,6,6,1,6,6,6,18,5.5,1.72727272727273,4,4,1,3,1,1,1,1,1,1,1,2,2,1,3,3,2,1,2,3,2,3,4,4,4,5,4,2,2,4,2,2,3,4,3.30769230769231,2,2,2,1, ,4,4,5, ,8,4,7,7,1, ,2,8,1, , ,2,1, ,1, , , , , , , , , , ,7,4,6,6,4,6,6,6,3,2,2,2,4,5,2,2,2,3,2,2,5,5,5,4,4,4,1,1,1,2,2,3,2,4,2,3,4,4,3,2,4,5,2,1,4,4,1,1,2,5,4,4,4,1,4,4,4,4,4,3,5,5,4,4,3,2,2.76923076923077,3,4,2,4,3,2,2,3,2,2,3,5,4,2,36.7,36.7,2,36.7,1,12,6,1,-.419585884664902,-.675381394624497,Serbia
1996,5,5,2,5,4,3,4,5,5,5,4,2,2,3,5,2,3.55555555555556,0,4,2.88888888888889,44,5.8125, ,4.27272727272727,1,3,2,4,2,5,4,2,4,3,4,3,3,3,2,8,3,5,4,7,4,7, ,8,8,8,5,5,5, ,5,3,5,7,6,7,3,9:54:26,2.8,2,0,4,4,4,5,4,4,4,4,3,4,5,6,4,4,4,4,6,22,6,2.36363636363636,4,1,4,2,3,1,2,1,2,2,4,4,4,2,3,3,3,2,3,2,2,1,5,3,3,2,2,4,4,3,1,1,2,5,2.76923076923077,2,2,2,1, ,4,4,5, ,4,2,6,6,1, ,2,8,1, , ,2,2,4,2,Mind the Mind volonteri, , , , ,3, , , , ,7,5,5,5,7,7,7,7,3,3,3,1,4,1,3,3,2,3,2,4,4,2,4,2,2,4,2,2,1,2,2,4,2,2,3,4,2,2,5,3,3,3,1,1,3,3,4,4,2,4,3,4,2,2,2,5,2,2,4,4,4,3,4,4,3,4,3.46153846153846,3,5,5,2,2,3,3,5,2,4,4,5,2,5,36.6,37,1,36.8,1,12,6,1,.263083050725882,1.98549604343335,Serbia
1994,2,3,1,2,1,1,1,2,4,1,2,2,1,1,5,1,1.94117647058824,0,3.55555555555556,2.88888888888889,95,1.6875,12,1.81818181818182,1,1,1,1,1,5,5,3,1,1,2, ,1,1,1,2,1,5,1,3,1,3,1,2,1,1,1,1,1,1,3,3,1, ,3,1, ,9:53:09,2,2,2,4,4,4,4,5,3,3,2,4,3,4,2,4,1,2,1,3,18,3.16666666666667,3.27272727272727,5,4,5,4,3,1,2,2,2,3,5,4,2,1,4,2,2,5,1,5,1,2,3,3,5,4,1,1,2,1,2,5,3,2,2.61538461538462,2,1,2,1, ,4,4,4,1,6,3,7,4,1, ,2,8,1, , ,1,2,4,1, , , , , , , , , , ,3,4,5,3,2,2,5,8,2,2,2,4,4,5,1,1,3,3,2,4,4,5,3,5,5,2,1,3,3,2,1,4,3,3,2,3,2,2,4,2,5,5,4,5,4,4,3,2,1,1,4,3,1,1,4,5,2,2,4,2,5,3,4,4,1,3,2.92307692307692,4,2,4,3,2,3,3,5,2,2,1,5,4,3,37.1,37,1,37.05,1,11,6,1,-1.10502426806944,-1.82675962035431,Serbia
1996,2,3,1,2,1,2,2,2,2,2,2,3,3,2,3,2,4,0,4.44444444444444,2,65,4, ,1.90909090909091,1,4,4,4,4,4,4,4,4,4,4,4,4,4,4,4,4,4,4,4,4,4,4,4,4,4,4,4,4,4,4,4,4,4,4,4,4,9:52:27,2.6,2,2,4,5,5,5,5,5,3,3,5,4,4,7,5,2,6,6,5,18,4.83333333333333,2.27272727272727,4,3,3,2,2,1,1,2,2,2,3,2,2,3,2,2,1,2,2,2,2,5,4,5,4,5,3,4,5,3,4,5,5,4,4.30769230769231,2,2,2,1, ,4,4,5, ,6,5,5,4,2,1,2,8,1, , ,3,1, ,1, , , , , , , , , , ,4,6,5,4,5,5,5,7,2,1,2,1,4,4,2,1,5,1,2,2,2,3,4,3,3,4,3,3,1,3,2,3,3,5,3,4,1,3,4,4,3,3,3,1,4,2,3,2,3,3,4,4,1,3,4,4,2,2,3,4,4,3,3,4,3,2,2.46153846153846,3,3,3,2,2,2,2,3,3,3,2,4,2,2,37,37,1,37,1,10,6,1,.639727980596659,.310414009344837,Serbia
1997,3,3,1,3,3,1,2,2,4,2,2,2,2,2,3,2,4.23529411764706,0,4.11111111111111,3.44444444444444,65,4, ,2.36363636363636,1,5,5,3,5,5,8,5,5, ,2,5,2,2,2,3,2,5,8,3,3,8, ,3,5,2,3, , , ,3, ,2,6,6, , ,9:23:30,2.2,2,0,4,4,4,3,5,4,4,4,4,5,4,4,6,1,2,3,3,16,4.16666666666667,3.63636363636364,4,4,4,4,3,4,4,4,2,3,4,4,3,4,4,4,2,4,2,4,2,2,4,4,4,3,3,4,3,3,3,3,4,4,3.38461538461538,2,2,2,1, ,4,4,5, ,3,3,6,6,1, ,2,8,1, , ,2,1, ,1, , , , , , , , , , ,5,6,3,3,4,4,4,6,3,2,4,3,4,4,4,2,4,4,3,4,3,4,4,4,4,4,2,2,1,3,4,4,2,2,2,2,4,2,3,2,4,3,4,5,4,3,2,2,4,3,4,4,2,2,4,3,4,3,4,2,4,4,4,3,3,2,2.84615384615385,3,4,3,4,3,2,2,3,2,2,4,5,2,3,35.7,36.4,2,36.05,1,8,6,1,.839128237587071,.310414009344837,Serbia
1991,2,2,1,1,4,3,4,2,1,2,3,2,3,2,3,1,2.61111111111111,6,5,2.88888888888889,68,2.8, ,2.27272727272727,1,1,1,1,2,3,3,2,2,7,1,7,3,4,1,2,1,1,5,7,1,1, ,4,8,3,1,1,1, ,1,1,4,7, ,1,1,8:42:05,2.2,2,8,4,5,5,5,5,5,5,5,5,5,1,1,1,1,1,1,1,29,6.83333333333333,3,3,3,3,3,3,3,3,3,3,3,3,2,3,3,3,3,3,3,3,3,1,1,5,4,1,4,3,2,1,3,2,1,3,2,2.46153846153846,1,2,2,1, ,4,4,4,3,3,1,4,3,1, ,2,8,3,2,8,2,2,5,2, , , , , , , , , , ,6,7,7,7,7,7,7,9,3,5,3,4,4,1,4,4,5,4,4,4,5,5,5,1,5,5,2,3,4,4,4,4,4,4,2,3,5,5,3,5,5,5,4,3,5,4,2,2,5,5,2,5,5,2,5,5,5,5,5,5,5,1,5,4,5,1,2.07692307692308,2,4,3,1,1,1,1,3,2,2,3,5,1,3,35.7,35.8,1,35.75,1,7,6,1,-.53728742524952,-.798605820120664,Serbia
1996,3,2,1,2,3,2,2,1,1,1,2,1,1,1,3,2,6.22222222222222,0,4.33333333333333,4,56,5.1875,10,1.81818181818182,1,8,5,8,5,8,8,4,8,5,4,6,4,7,8,7,8,5,4,7, ,7,4,4,8,8,3,3,5,4,6,4,4,7,6, ,3,14:18:49,1.6,2,3,3,5,4,4,4,3,5,4,5,5,4,4,6,1,3,4,4,14,5.66666666666667,3.54545454545455,3,3,4,4,4,4,4,4,2,3,4,4,5,4,4,4,2,5,3,5,1,1,1,2,1,5,5,1,1,3,3,2,4,2,2.38461538461538,1,1,2,1, ,4,3,5, ,1, ,7,5,2,1,2,8,1, , ,4,1, ,1, , , , , , , , , , ,5,6,6,6,6,5,5,6,2,1,4,1,4,4,3,5,4,4,5,2,4,4,1,5,4,3,3,4,2,1,5,5,1,2,2,1,2,2,4,2,3,4,3,4,5,2,5,1,2,4,2,4,3,1,5,5,2,2,2,4,3,3,3,4,4,4,3.07692307692308,3,4,3,3,3,2,3,3,3,3,4,5,3,3,36.5,36.5,1,36.5,1,6,6,1,2.52295262995055,1.40788154892007,Serbia
1996,1,3,2,2,3,4,5,3,5,4,2,1,4,2,3,3,4.64705882352941,7,3.55555555555556,3,75,4.25, ,3.09090909090909,1,4,5,5,8,5,5,5,5, ,2,4,2,5,3,8,4,7,2,5,5,5,3,5,5,8,4,3, ,3,5,3,3,4,4, ,3,13:55:41,2.6,2,12,3,5,4,4,4,4,4,2,1,4,5,6,4,4,4,4,5,23,4.16666666666667,3,3,4,3,3,2,2,4,3,3,4,2,4,2,3,2,3,3,3,3,4,1,2,2,2,2,3,3,4,3,3,3,3,3,3,2.76923076923077,1,2,2,3,6,4,4,5, ,4,3,4,4,2,1,1, ,1, , ,4,1, ,1, , , , , , , , , , ,5,4,4,4,4,4,4,7,1,4,4,4,4,4,4,4,4,3,3,3,4,4,4,4,4,3,3,3,3,2,3,3,3,3,4,4,4,4,3,4,4,4,4,3,4,3,3,4,4,3,3,4,3,4,3,3,3,3,3,3,4,2,2,3,3,4,3,4,3,4,2,3,3,3,2,2,3,3,3,3,4,36,36.5,2,36.25,1,4,6,1,1.18807868732029,.54145980715015,Serbia
1996,2,2,2,2,3,2,3,2,2,3,1,1,2,1,3,2,5.64705882352941,2,4.33333333333333,3.88888888888889,83,3.2, ,2.18181818181818,1,8,8,4,8,7,5,8,8,4,2, ,5,4,8,5,8,2,2,8, ,5,1,2,2,2,3, , , , , ,2,4,3, , ,13:04:53,1.8,2,7,3,5,4,5,5,3,5,2,5,5,2,6,4,3,4,4,5,16,4.5,4,4,4,4,4,4,4,4,4,3,4,5,4,4,2,5,4,2,4,5,5,2,3,2,2,2,4,5,3,2,1,2,3,4,5,2.92307692307692,2,2,2,1, ,4,4,5, ,5,5,4,4,1, ,2,8,1, , ,2,1, ,1, , , , , , , , , , ,3,6,4,4,6,4,5,6,2,4,4,5,2,2,1,1,4,5,5,5,3,4,3,1,3,3,2,2,2,4,5,3,5,2,1,1,2,2,5,5,2,4,2,4,4,4,3,2,3,4,3,4,2,3,4,5,2,2,5,4,5,2,5,4,1,5,2.84615384615385,3,4,4,2,2,2,3,3,2,3,4,4,2,3,36.8,37,2,36.9,1,4,6,1,2.03552977952954,-.428932543632163,Serbia
1996,2,3,1,5,2,1,2,3,3,2,3,1,1,2,1,1,3.11764705882353, ,3.55555555555556,3.22222222222222,95,4.58333333333333,10,2.45454545454545,1,3,2,4,3,5,4,2,5,3,2, ,2,2,2,2,2,8,2,3, ,7, ,8,2,4,3, ,3, ,3, ,5,6,7,4, ,12:25:53,1.2,2, ,3,4,3,3,5,4,4,3,3,3,5,6,3,1,2,4,6,14,2.66666666666667,3,4,4,4,4,2,2,3,2,2,2,4,3,4,2,4,4,4,1,3,4,2,1,3,5,4,4,2,2,4,3,3,3,5,4,3.30769230769231,2,1,2,1, ,4,4,5, ,2,2,6,6,1, ,2,8,1, , ,1,1, ,1, , , , , , , , , , ,3,2,3,3,2,3,3,6,3,4,3,3,4,2,3,4,4,4,2,4,4,4,4,4,4,2,4,3,2,4,5,5,2,3,2,2,4,4,4,1,4,2,4,4,4,4,2,1,3,3,2,3,1,4,3,4,1,1,4,3,2,2,2,2,2,4,2.92307692307692,3,4,5,1,2,3,2,4,2,2,4,5,2,4,36.8,36.4,1,36.6,1,6,6,1,-.108022983117384,.849520870890567,Serbia
1995,4,3,1,4,3,4,4,4,1,3,1,3,4,3,3,4,2.47058823529412,0,3.66666666666667,1.22222222222222,56,3.25, ,2.90909090909091,1,5,3,1,1,4,3,2,2,4,5, ,1,1,4,2,1,2,1,4,3,4, ,5,3,2,4, , ,1, , ,5,3,4,1, ,12:16:24,3.4,2,0,3,4,3,3,5,4,3,3,4,4,2,2,2,1,2,1,1,9,5.5,1.18181818181818,2,1,1,2,1,1,1,1,1,1,1,1,2,1,1,1,1,2,1,1,2,3,2,2,2,4,2,4,2,3,4,2,3,3,2.76923076923077,1,2,3,1, ,4,4,5, ,1, ,3,3,1, ,2,8,1, , ,1,1, ,1, , , , , , , , , , ,6,5,5,5,6,6,6,5,2,2,4,2,3,2,3,3,3,4,4,3,3,4,3,3,3,3,2,3,3,3,4,3,2,3,3,1,3,3,3,5,4,5,3,4,3,2,2,3,3,3,4,4,3,4,3,3,3,4,3,3,4,3,3,3,4,4,2.69230769230769,3,2,3,2,3,2,4,3,3,2,3,4,2,3,36.3,36.6,1,36.45,1,6,6,1,-.656373689841016,-.382723384071101,Serbia
1996,2,1,1,3,3,1,1,2,3,1,2,2,2,2,2,2,3.44444444444444,0,5,3.33333333333333,65,3.25, ,1.81818181818182,1,3,3,4,2,2,5,2,3,4,2,6,2,4,4,2,4,8,2,4, ,4, ,3,2,2,4, ,3, , , ,2,4,4,3,4,11:48:48,2,2,0,3,5,5,5,5,5,5,5,5,5,4,6,5,2,3,3,4,11,5.5,3.45454545454545,3,4,3,4,3,4,4,4,2,4,3,4,4,3,4,2,3,4,2,4,2,4,4,5,4,2,3,3,4,3,3,5,4,3,3.61538461538462,2,2,2,1, ,4,2,5, ,2,2,5,5,1, ,2,8,1, , ,1,1, ,1, , , , , , , , , , ,7,4,5,5,6,6,6,6,3,3,3,2,2,3,3,3,4,4,4,4,4,4,4,3,3,4,2,2,2,3,4,4,2,4,2,3,3,2,3,3,3,4,3,3,3,4,2,2,2,2,2,3,2,2,4,4,4,3,4,1,4,4,3,3,3,2,3.07692307692308,4,3,4,3,3,3,3,4,3,3,2,4,2,3,36.3,36.1,1,36.2,1,8,6,1,.168921818258188,-.382723384071101,Serbia
1986,2,3,1,2,2,1,3,2,3,1,2,2,4,2,1,2,3,0,2.88888888888889,1.11111111111111,44,5.17647058823529,15,2,1,2,2,2,4,2,2,1,5,3,4, ,2,5,4,4,5,2,2,5,4,8,3,5,8,4,4,4,6,4,6,3,4,7,7, ,6,11:48:37,2.2,2,.01,3,3,4,3,3,4,3,2,2,2,4,2,4,2,1,2,2,28,2.16666666666667,1.81818181818182,4,3,3,1,2,1,1,1,1,1,2,1,1,1,1,1,1,1,1,2,1,2,5,5,4,3,3,3,5,4,3,2,4,4,3.61538461538462,2,1,1,2,2,4,4,4,1,3,1,4,4,1, ,2,2,3,7,5,3,1, ,1, , , , , , , , , , ,3,2,2,2,2,2,4,9,1,3,2,2,4,3,4,4,2,4,3,4,2,2,4,2,2,4,3,2,2,2,3,4,2,3,3,2,2,2,4,3,3,3,2,4,3,4,4,2,3,4,4,3,2,3,3,3,2,2,2,4,3,2,2,2,3,2,3.07692307692308,3,4,4,2,3,2,4,3,3,4,3,4,2,3,36.7,36.7,1,36.7,1,12,6,1,-.20772311161259,1.39768835195807,Serbia
1996,4,4,3,3,5,4,5,1,2,2,2,1,1,2,3,1,2.52941176470588,0,4.11111111111111,3.22222222222222,61,4.07692307692308,17,3.18181818181818,1,2,2,1,2,4,5,3,2,1,2, ,1,2,5,2,1,7,1,8,4,5, ,8,2,2, ,1, ,4,1, ,2,6,5, ,5,11:38:50,1.6,2,3,3,4,5,5,4,4,5,4,4,2,4,6,4,1,2,2,4,8,4.16666666666667,2,3,2,2,2,2,1,3,2,1,2,2,2,4,4,2,2,2,5,4,4,1,1,1,5,4,3,1,1,2,2,2,1,2,2,2.07692307692308,2,1,2,1, ,4,2,5, ,2,1,3,3,1, ,2,4,1, , ,1,1, ,1, , , , , , , , , , ,3,5,4,3,6,4,4,6,0,4,5,5,2,3,5,3,2,5,5,3,2,2,2,1,2,3,1,3,1,5,5,2,5,3,2,1,1,2,5,5,3,4,1,1,4,3,1,2,5,4,2,4,2,2,3,4,4,3,2,2,2,2,1,1,5,1,4.07692307692308,4,3,5,4,4,5,4,5,4,5,3,5,3,4,37.3,37.3,1,37.3,1,1,6,1,-.606523625593413,.381505024054164,Serbia
1996,2,3,1,4,4,2,4,4,2,4,1,2,2,3,4,2,1.66666666666667,0,4.55555555555556,1.11111111111111,65,5, ,2.81818181818182,1,1,1,1,1,1,1,1,1,7,1,7,1,1,1,1,1,1,1,1,7,1,7,1,1,1,7,7,7,7,7,7,1,7,7,7,7,11:38:22,2.6,2,2,3,5,5,5,5,5,4,4,4,4,5,5,4,1,4,4,4,8,5,1,1,1,1,1,1,1,1,1,1,1,1,1,1,1,1,1,1,1,1,2,2,4,1,5,3,3,1,2,2,1,3,2,2,2,2.38461538461538,1,2,2,1, ,4,4,5, ,1, ,3,1,2,1,2,5,1, , ,1,1, ,1, , , , , , , , , , ,5,5,4,4,6,6,5,6,2,1,3,2,4,1,1,1,4,5,4,5,1,1,3,1,1,1,1,1,2,3,5,5,2,4,1,1,1,1,3,5,1,1,1,2,3,1,1,2,4,4,2,4,1,2,5,3,1,1,1,5,4,1,1,1,1,1,3.84615384615385,4,4,5,3,3,4,4,5,3,4,3,4,3,5,36.4,36.5,1,36.45,1,8,6,1,-1.33765790122492,1.23459720056609,Serbia
1996,4,3,2,3,4,2,3,2,2,4,3,2,3,2,2,2,4.22222222222222,0,3.77777777777778,3,65,3.72222222222222, ,2.90909090909091,1,4,4,3,5,8,8,2,5,4,4,4,5,4,2,5,5,2,2,4,3,8,3,3,4,3,4,3,3,3,3,3,2,3,6,6,3,11:37:19,2.2,2,0,3,4,4,3,4,4,4,4,4,3,4,5,4,1,4,2,4,24,5.16666666666667,2.72727272727273,4,4,3,4,2,2,2,2,2,2,3,4,2,3,4,3,3,2,2,4,2,3,3,4,4,4,2,2,4,4,4,4,4,5,3.61538461538462,2,2,2,1, ,4,4,5, ,6,4,7,6,1, ,2,8,1, , ,2,2,5,2,studentska organizacija, , , , ,2, , , , ,6,5,5,5,5,5,5,7,4,2,4,3,3,4,3,2,4,4,2,2,3,3,3,3,4,4,2,2,1,3,3,3,2,3,3,1,4,3,3,2,4,4,4,4,4,4,3,2,2,3,4,3,2,1,4,4,2,3,2,4,4,2,2,3,3,2,3.23076923076923,3,4,4,3,3,2,3,4,3,3,4,4,2,4,36.2,36.2,1,36.2,1,8,6,1,.828050445532048,.0536964562278232,Serbia
1995,2,2,1,3,3,2,2,2,2,2,3,2,2,2,2,2,3.77777777777778,2,4.55555555555556,3,44,1.57142857142857,15,2.18181818181818,1,5,3,3,5,8,2,5,5,4,1,5,2,2,1,3,8,5,1,1,1,2,1,1,1,1,3, ,1,1, , ,1,3,4,1, ,11:36:45,2,2,0,3,5,5,5,5,5,4,4,4,4,5,7,6,5,6,5,6,13,4.83333333333333,3.27272727272727,5,4,4,3,4,2,3,3,2,2,4,3,3,2,4,2,3,3,3,4,1,3,2,4,4,4,2,2,2,3,3,4,3,3,3,2,1,2,1, ,4,2,5, ,4,4,4,4,1, ,2,6,1, , ,2,1, ,1, , , , , , , , , , ,6,3,5,3,6,6,6,6,2,3,1,3,5,2,2,1,4,5,4,5,3,5,4,3,5,4,1,2,1,3,4,4,3,4,1,2,2,2,4,5,4,5,2,4,3,3,3,3,3,2,5,2,2,2,4,4,5,4,4,2,5,5,3,2,1,5,3.07692307692308,3,3,4,2,4,2,4,3,2,2,3,5,4,4,36.2,36.2,3,36.2,1,12,6,1,.451405515661271,-1.93403088362106,Serbia
1996,4,4,1,4,2,3,4,4,2,3,2,2,3,2,3,2,3.5,0,3.11111111111111,2.55555555555556,55,5.05555555555556, ,3,1,4,2,2,5,4,5,1,5,3,3,3,4,3,2,5,4,4,4,8,4,8,5,4,5,5,5,5,3,4,6,5,3,7,6,4,4,11:35:41,2.4,2,2,3,3,3,4,3,3,3,3,2,4,3,3,4,2,2,4,4,13,5,3.27272727272727,4,4,4,4,4,3,2,2,2,3,4,2,2,2,2,3,2,2,4,4,2,2,2,4,4,5,2,2,3,2,3,3,3,4,3,2,2,2,1, ,4,4,5, ,2,2,4,3,1, ,1, ,1, , ,3,1, ,1, , , , , , , , , , ,6,6,5,2,7,4,5,5,1,2,1,1,4,5,3,2,5,4,2,3,4,4,3,4,2,3,2,2,3,2,2,4,2,4,2,3,2,3,4,2,4,4,3,4,4,4,2,2,3,3,2,4,2,2,4,4,3,2,4,4,4,3,4,3,4,2,3.23076923076923,4,4,3,3,3,3,3,3,4,3,4,4,2,3,35.9,36.5,1,36.2,1,-2,6,1,.216002434492035,1.28594071118949,Serbia
1996,4,3,4,4,4,4,5,2,3,3,2,2,4,1,3,2,2.16666666666667,0,4,3.77777777777778,45,2.33333333333333, ,3.45454545454545,1,5,2,2,3,1,1,1,1,5,1,6,2,1,1,2,2,2,1,7,1,2,1,1,7,1,1,1,1,1,6,1,1, ,3, , ,11:33:38,2.4,2,5,3,5,4,3,3,5,4,4,4,4,5,3,4,1,3,2,7,16,2.16666666666667,3,4,4,2,4,3,2,2,4,2,2,4,4,4,4,3,4,4,4,2,5,1,5,2,5,4,4,1,1,5,2,4,3,3,2,3.15384615384615,2,2,2,1, ,4,4,5, ,6,4,5,4,2,1,2,3,1, , ,2,1, ,1, , , , , , , , , , ,2,2,3,2,2,2,3,7,1,2,4,1,4,4,2,4,4,4,5,1,4,4,4,4,5,5,2,2,4,4,5,3,2,4,1,1,2,2,3,4,4,4,2,2,4,4,5,2,3,2,4,4,4,2,4,4,4,4,2,4,5,2,2,2,2,4,3.07692307692308,3,5,4,2,2,3,2,4,2,2,4,5,3,4,36.2,36.4,2,36.3,1,12,6,1,-.913932355120298,-1.22989130935725,Serbia
1996,5,5,2,4,2,2,4,4,5,4,4,2,5,1,1,1,3.70588235294118,2,4.44444444444444,2.44444444444444,70,4.66666666666667, ,3.72727272727273,1,2,2,2,8,5,7,4,8,7,1, ,3,5,1,1,4,1,2,8, ,8,5,2,8,2, , , ,1, , ,1,6,7,7,1,11:31:20,2,2,2,3,5,5,5,5,5,5,2,4,4,3,4,7,1,3,4,7,21,4.5,3.63636363636364,3,4,4,4,5,4,2,3,2,4,5,2,2,3,3,3,2,3,2,2,2,5,2,5,3,3,5,5,2,4,2,4,5,5,3.84615384615385,2,2,2,1, ,4,4,5, ,4,3,6,6,2,2,2,4,1, , ,5,1, ,1, , , , , , , , , , ,7,2,3,3,6,6,7,7,3,3,3,1,4,4,3,5,2,4,3,4,5,4,4,4,4,5,1,1,1,4,4,3,3,2,1,1,4,3,2,3,5,5,2,3,4,2,2,2,1,3,3,4,4,1,4,5,5,5,5,1,5,4,4,4,4,4,2.38461538461538,3,3,4,1,2,1,1,5,2,1,4,4,1,3,35.5,36.6,2,36.05,1,1,6,1,.390477659358645,.926536136825671,Serbia
1996,4,4,1,3,2,3,4,3,3,2,2,1,2,2,2,2,4.58823529411765,0,2.88888888888889,3,45,3.83333333333333, ,2.81818181818182,1,5,5,4,5,8,3,8,5,3,3, ,7,4,2,5,3,5,3,5, ,5, ,2,3,5, ,3, ,1,3, ,8,5,5,1, ,11:26:11,1.8,2,3,3,3,3,3,3,4,2,2,3,3,3,4,4,2,1,2,4,15,3,3.18181818181818,2,4,4,4,3,3,2,4,3,2,4,3,3,2,4,3,2,2,3,5,2,3,2,2,2,3,2,2,3,3,2,3,4,4,2.69230769230769,2,2,2,1, ,4,4,5, ,1, ,8,8,1, ,2,8,1, , ,2,1, ,1, , , , , , , , , , ,3,3,3,2,4,3,3,5,3,4,4,5,2,3,1,1,3,5,5,4,4,4,2,4,3,3,2,3,4,5,5,2,5,4,2,1,3,2,3,3,3,4,3,4,3,2,3,4,2,2,4,3,3,2,5,3,2,3,4,2,3,4,4,2,3,4,2.76923076923077,3,3,3,3,2,2,3,2,3,4,3,4,3,2,36.6,36.7,1,36.65,1,12,6,1,1.13822862307269,.156383477474629,Serbia
1996,4,3,1,3,2,2,5,2,2,3,2,2,3,1,2,2,1.27777777777778,0,4.55555555555556,1.66666666666667,53,3.6, ,2.63636363636364,1,1,1,1,1,4,2,1,1,1,1,1,1,1,1,1,1,2,1,2,4,8, ,2,2,1,4, , , , , ,2,7,4, , ,11:21:48,2,2,1,3,5,5,5,5,5,4,3,5,4,4,6,5,2,5,5,5,19,4.33333333333333,2.72727272727273,4,4,4,4,4,1,2,1,1,1,4,1,4,1,2,1,2,1,1,2,1,4,4,4,4,4,3,3,4,3,2,3,2,5,3.46153846153846,2,2,2,1, ,4,4,5, ,7,5,7,7,1, ,2,8,1, , ,2,1, ,1, , , , , , , , , , ,5,4,5,4,4,4,5,6,3,2,2,2,5,3,4,2,2,2,2,2,5,4,4,3,4,5,1,1,1,1,3,3,2,3,2,4,3,2,3,2,4,4,3,3,4,4,4,2,3,3,4,4,2,2,5,4,3,3,4,2,3,4,3,2,4,3,2.53846153846154,2,3,3,2,2,2,3,3,3,2,4,5,1,3,36,36,1,36,1,6,6,1,-1.66722221486185,-.059259267143663,Serbia
1994,4,3,1,4,4,2,3,3,3,3,2,2,2,1,2,2,4,0,3.88888888888889,1.11111111111111,53,4, ,2.90909090909091,1,4,4,4,4,4,4,4,4,4,4,4,4,4,4,4,4,4,4,4,4,4,4,4,4,4,4,4,4,4,4,4,4,4,4,4,4,11:21:04,1.8,2,31,3,4,4,4,5,4,4,3,4,3,5,8,6,7,7,6,8,12,5.66666666666667,2.18181818181818,4,1,4,3,4,1,1,1,1,1,3,2,1,1,1,1,1,1,1,1,2,2,3,5,4,5,1,2,2,3,3,5,4,3,3.23076923076923,2,2,2,1, ,4,4,5, ,4,4,2,2,1, ,2,4,1, , ,1,1, ,1, , , , , , , , , , ,7,5,5,5,6,6,6,6,1,3,4,4,4,2,4,3,2,4,2,2,5,3,3,3,3,4,3,3,2,3,4,4,3,1,3,2,1,4,4,4,3,3,1,1,4,2,2,2,4,3,2,5,4,2,4,4,4,4,5,2,3,4,5,4,3,3,3.46153846153846,4,4,3,3,4,4,4,4,3,3,3,5,2,4,36,36.1,1,36.05,1,6,6,1,.639727980596659,.310414009344837,Serbia
1995,1,1,1,1,1,1,2,1,2,1,1,2,2,2,1,1,1.05555555555556,0,3.11111111111111,1,65,4.47058823529412, ,1.18181818181818,1,1,1,1,1,1,1,1,1,1,1,1,1,1,2,1,1,1,1,4,4,7,4,5,5,2,4,5,3,4,4,4,4,7,7, ,3,11:20:34,1.6,2,0,3,3,3,4,4,4,2,2,3,3,5,6,6,1,7,1,7,22,2,1,1,1,1,1,1,1,1,1,1,1,1,1,1,1,1,1,1,1,1,1,2,5,4,5,5,5,4,4,5,5,5,4,5,5,4.69230769230769,2,2,2,1, ,4,4,5, ,8,8,6,4,1, ,2,8,1, , ,1,2,4,1, , , , , , , , , , ,1,2,2,2,3,2,2,7,2,3,3,5,2,1,1,1,1,5,2,1,4,5,5,2,2,2,1,1,4,3,2,1,4,1,1,1,3,2,4,4,5,4,1,1,5,3,5,3,2,3,5,2,1,4,4,2,1,1,4,3,5,2,3,2,3,5,2.07692307692308,1,3,4,2,1,1,2,2,2,2,2,5,2,3,36.1,36.3,1,36.2,1,2,6,1,-1.85554467979724,.745323746390132,Serbia
1995,1,2,5,2,4,5,2,1,2,1,1,3,1,1,3,1,5.11111111111111,0,4.77777777777778,3,65,3.66666666666667, ,2.36363636363636,1,4,5,4,7,7,7,2,8,3,1,6,4,8,8,1,8,7,2,1, ,5,1,2,8,2, ,1, , , , ,5,7,7,1,4,11:19:17,1.8,2,0,3,5,5,4,5,5,5,5,5,4,5,3,6,1,3,5,3,10,5.5,2.63636363636364,4,1,4,1,4,1,4,1,4,1,4,2,4,1,5,3,3,4,1,4,2,3,5,5,5,5,1,3,5,5,5,5,5,4,4.30769230769231,2,2,2,1, ,2,2,5, ,2,2,4,4,1, ,2,7,1, , ,1,1, ,1, , , , , , , , , , ,5,6,5,5,6,6,5,6,2,2,4,1,5,2,2,2,3,4,4,1,2,5,4,2,4,4,2,2,1,2,4,2,1,5,2,1,1,1,4,5,5,2,2,5,5,5,3,1,4,4,4,4,1,3,5,5,1,1,5,4,5,5,5,2,2,1,4.46153846153846,5,5,5,4,4,4,4,4,4,5,5,5,4,5,36.4,36.3,1,36.35,1,2,6,1,1.5813403052736,.00235294560442019,Serbia
1992,4,3,1,4,4,1,4,4,3,2,1,2,2,2,3,2,3.72222222222222,0,3.66666666666667,2,56,3.85714285714286,20,2.81818181818182,1,4,3,3,5,4,3,2,4,4,2,5,4,5,5,2,4,5,3,2,3,8, ,3,5,2,3, ,3, ,3,3,3,6,6, ,4,11:15:58,2.2,2,0,3,4,3,4,5,4,4,2,3,4,3,2,1,1,3,1,1,10,4,1.18181818181818,1,3,1,1,1,1,1,1,1,1,1,3,3,1,2,2,1,2,1,3,2,3,4,3,4,4,2,1,4,2,2,3,4,3,3,1,1,2,1, ,2,2,5, ,2,1,5,5,1, ,2,8,1, , ,1,1, ,1, , , , , , , , , , ,3,4,3,5,5,4,3,6,2,1,2,3,3,4,1,2,4,4,2,4,4,4,3,2,4,3,2,3,3,2,2,4,2,2,2,1,2,2,4,3,4,4,4,1,4,2,4,3,2,3,4,4,2,2,4,3,2,2,4,3,4,2,2,4,3,1,2.76923076923077,4,3,3,3,2,2,3,3,2,3,3,3,3,2,36.6,36.6,3,36.6,1,6,6,1,.404324899427424,.178387839170373,Serbia
1996,2,3,2,4,1,3,2,3,3,3,2,3,4,2,4,2,2.38888888888889,0,4.44444444444444,2.11111111111111,57,2.9, ,2.54545454545455,1,1,1,2,1,8,4,3,2,1,2,4,2,2,2,1,2,2,3,2, ,5, ,2,2,2,3, , , ,3, ,1,5,4, , ,11:06:45,3,2,2,3,5,5,4,5,5,4,3,4,5,3,4,4,2,4,4,4,48,5.16666666666667,3.09090909090909,4,3,4,4,5,3,2,2,1,2,4,3,2,1,3,1,1,2,2,4,2,5,4,4,4,5,5,3,3,3,4,4,4,3,3.92307692307692,2,2,2,1, ,4,4,5, ,8,7,8,8,2,1,2,8,3,1,8,5,2,8,2,Udruženje koje se bavi decom i srednjoškolcima, , , , ,5, , , , ,6,5,6,4,5,5,6,9,5,3,3,2,4,3,4,5,2,4,2,4,4,4,4,4,3,3,1,1,1,3,2,3,2,4,2,2,4,3,2,2,5,4,3,2,4,2,4,3,2,2,5,3,4,3,5,4,3,3,4,2,4,3,2,3,3,4,1.92307692307692,2,2,2,2,2,1,2,2,2,1,3,4,2,2,36,36,2,36,1,-1,6,1,-.725609890184909,-.706187500998539,Serbia
1995,4,5,4,3,4,4,4,5,4,3,4,1,2,1,4,3,4.83333333333333,0,4.22222222222222,3.77777777777778,65,6.22222222222222, ,4,1,3,8,5,8,8,4,4,5,4,5,4,4,4,1,8,4,5,3,8,5,7,5,8,5,8,6,6,6,5,6,6,8,7,7,5,4,11:06:14,2.2,2,0,3,4,4,3,4,4,5,4,5,5,3,3,3,1,4,4,5,12,6.66666666666667,3.45454545454545,4,4,4,2,3,3,4,5,2,4,3,5,4,3,4,3,2,4,4,5,2,3,2,4,4,4,2,4,3,3,4,4,5,3,3.46153846153846,2,2,2,1, ,3,1,5, ,6,5,4,4,1, ,2,5,1, , ,1,1, ,1, , , , , , , , , , ,7,7,6,6,7,7,7,6,2,2,4,2,4,5,2,3,3,5,4,4,2,3,3,4,3,3,4,2,2,3,4,3,3,4,3,2,2,2,4,4,4,3,2,3,4,4,1,2,4,3,2,4,2,1,3,4,2,2,4,3,5,2,3,4,2,4,3.07692307692308,3,4,4,2,2,1,4,4,2,3,5,4,3,3,36.7,36.8,1,36.75,1,2,6,1,1.34593722410437,2.36415443428095,Serbia
1990,3,2,1,2,2,2,2,2,2,2,2,2,2,4,4,2,2.52941176470588,0,4,1,41,5.76470588235294,15,2,1,2,2,2,2,2,2,4,2, ,2,6,2,5,2,2,2,2,2,2,6,8, ,8,8,2,5,6,6,6,6,6,8,6,6,6,3,11:06:06,2.8,2,15,3,5,4,4,5,5,4,2,3,4,2,1,1,1,1,1,1,12,2.16666666666667,1.63636363636364,4,2,2,2,1,1,1,1,1,1,2,1,1,1,1,1,1,1,1,1,2,3,4,5,4,3,2,3,4,4,4,3,4,3,3.53846153846154,1,1,2,1, ,2,2,4,1,2,1,2,6,1, ,1, ,1, , ,1,1, ,1, , , , , , , , , , ,2,2,2,2,2,3,2,6,2,4,4,4,4,2,2,2,2,4,2,2,4,2,2,2,2,2,2,2,2,4,2,2,2,2,4,2,2,2,2,4,4,4,2,2,2,4,2,2,4,4,4,4,2,2,2,2,2,2,2,4,2,2,2,2,4,1,2.84615384615385,3,4,3,2,2,3,3,2,3,3,4,4,2,3,36,36.1,1,36.05,1,9,6,1,-.606523625593413,1.94132552326469,Serbia
1991,2,1,2,2,2,2,2,2,2,1,2,2,2,2,2,2,3.44444444444444,0,5,1.77777777777778,56,2.57142857142857,15,1.81818181818182,1,5,4,2,8,5,5,2,2,3,2,4,2,2,2,2,4,5,3,2, ,2, ,2,2,2, , , , , , ,2,6, , , ,11:01:54,2,2,0,3,5,5,5,5,5,5,5,5,5,3,3,4,1,2,1,2,30,4.83333333333333,2.09090909090909,1,4,4,1,1,1,2,2,2,1,4,1,2,2,1,1,1,3,1,4,1,2,2,5,5,4,1,1,4,5,4,2,2,2,3,2,1,2,1, ,4,4,2,1,4,4,4,4,1, ,1, ,3,7,8,1,1, ,1, , , , , , , , , , ,5,5,4,4,6,5,5,7,1,4,2,2,4,4,3,3,4,4,4,4,5,3,3,3,3,3,1,1,3,2,4,4,2,4,2,3,4,3,5,2,4,5,2,1,4,1,4,4,4,2,4,4,4,2,5,4,4,3,4,2,1,4,1,2,1,4,3.15384615384615,4,4,4,3,3,3,3,3,3,2,3,4,2,4,36.9,37.1,1,37,1,6,6,1,.168921818258188,-1.00984769239981,Serbia
1995,2,2,1,2,2,1,3,2,2,2,2,1,1,1,2,1,5.44444444444444,0,3.66666666666667,3.55555555555556,56,4.33333333333333, ,1.90909090909091,1,8,5,5,8,8,8,5,8,5,2,3,4,4,4,8,4,7,2,5,3,2, ,3,5,5,6,6, , ,3, ,5, , ,3,6,11:01:43,1.2,2,0,3,5,5,5,5,5,3,2,2,1,3,2,1,1,2,2,1,12,2.66666666666667,3.36363636363636,4,4,4,4,4,2,4,4,1,2,4,4,4,4,4,4,4,2,2,4,2,3,1,2,3,4,1,2,2,1,2,3,4,3,2.38461538461538,2,2,2,1, ,2,2,5, ,3,3,4,4,1, ,2,8,1, , ,2,1, ,1, , , , , , , , , , ,3,2,4,2,3,2,2,6,2,2,2,2,5,4,2,3,4,2,2,1,4,3,4,2,4,4,2,2,1,2,4,4,2,2,2,4,2,2,4,4,4,4,4,4,2,4,2,2,4,5,2,4,2,2,4,5,2,2,4,4,4,2,2,4,1,4,3.53846153846154,4,5,4,3,3,4,3,3,3,3,4,4,3,4,36.2,36.2,3,36.2,1,6,6,1,1.86382400267669,.618475073085254,Serbia
1968,1,1,1,2,1,1,1,1,2,1,1,1,2,1,3,1,1.44444444444444,0,4.22222222222222,1.11111111111111,45,2, ,1.18181818181818,1,1,1,2,4,2,1,1,1,3,1,1,1,1,2,1,1,1,1,2,1,5,1,1,1,1,1,1, ,1, ,3,2,4,5,1, ,11:00:49,1.6,2,0,3,5,5,5,5,5,4,3,3,3,3,2,1,1,2,1,2,43,1.5,1.09090909090909,2,1,1,1,1,1,1,1,1,1,1,1,1,1,2,1,1,1,1,1,1,4,5,5,5,4,3,4,5,5,2,5,5,1,4.07692307692308,2,2,1,1, ,4,4,2,2,8,4,8,6,1, ,1, ,3,8,8,1,1, ,2,LN grupa,LB grupa, , , ,4,5, , , ,3,1,1,1,1,2,2,7,2,2,4,4,3,1,1,4,2,5,4,3,4,4,4,4,4,4,1,1,2,4,3,3,3,3,2,2,4,3,3,2,5,4,2,4,4,4,3,2,2,1,1,1,1,1,3,4,1,1,1,1,1,1,1,1,4,2,1.46153846153846,2,2,3,1,1,1,1,2,1,1,2,3,1,1,36.7,37.8,1,37.25,1,10,6,1,-1.52598036616031,-1.53795237309766,Serbia
1997,2,2,1,2,3,2,3,3,2,2,2,2,2,2,3,2,3.72222222222222,0,3.44444444444444,1.77777777777778,45,4, ,2.18181818181818,1,4,4,4,4,4,2,4,4,4,4,4,4,4,2,4,4,3,4,4,4,4,4,4,4,4,4,4,4,4,4,4,4,4,4,4,4,11:00:39,2.2,2,3,3,5,4,3,4,4,3,3,3,2,3,4,4,1,3,4,3,16,2.5,1.90909090909091,2,3,3,4,1,1,2,1,1,2,1,2,3,2,2,1,1,2,1,2,2,4,3,5,5,4,3,3,4,4,4,5,4,4,4,2,2,2,1, ,4,4,5, ,4,4,5,5,2,1,2,5,1, , ,1,1, ,1, , , , , , , , , , ,3,2,3,2,3,2,3,7,3,4,2,3,4,2,2,2,4,4,3,2,3,3,3,2,3,2,2,2,2,4,3,3,3,4,3,2,2,2,3,4,3,3,2,2,3,2,4,3,2,3,4,4,2,3,4,3,2,2,3,3,2,3,2,3,2,4,2.38461538461538,2,3,3,4,2,1,2,3,2,2,3,4,2,2,37.2,36.8,2,37,1,12,6,1,.404324899427424,.310414009344837,Serbia
1995,2,2,2,3,2,2,4,2,1,3,2,2,1,1,2,1,5.22222222222222,1,4.88888888888889,3,95,2.75, ,2.27272727272727,1,5,5,8,5,5,3,5,5,5,3,6,3,8,8,5,5,8,2,2, ,2, ,2,5,5, , ,1,1, ,1,5,4, ,1,4,10:59:41,1.4,2,1,3,5,5,5,5,5,5,5,4,5,5,7,6,4,3,3,5,13,3.66666666666667,2.54545454545455,4,2,4,2,3,2,2,2,2,2,3,3,2,2,3,2,4,3,4,4,1,2,4,4,4,5,2,1,2,3,4,3,2,4,3.07692307692308,2,2,2,1, ,4,4,5, ,2,2,5,5,1, ,2,7,1, , ,1,1, ,1, , , , , , , , , , ,2,4,5,4,4,3,4,6,3,2,2,2,5,4,2,2,2,3,2,2,5,4,3,3,4,3,2,2,1,3,2,2,2,4,2,4,4,4,4,4,3,5,4,4,4,4,2,2,4,4,2,4,4,2,4,4,4,4,4,2,4,4,4,3,2,5,3.15384615384615,4,4,3,2,3,2,2,4,3,3,5,4,3,3,36.1,36.4,1,36.25,1,6,6,1,1.6755015377413,-.844814979681726,Serbia
1996,2,4,1,3,2,1,1,2,3,3,3,1,1,1,1,1,5.16666666666667, ,4.66666666666667,2.22222222222222,75,4.66666666666667, ,2.27272727272727,1,8,4,4,4,4,7,4,7,5,4,6,4,4,5,7,8,4,4,4,4,8,4,4,4,4,7,4,4,4,4,4,4,6,7,4,4,10:59:19,1,2, ,3,5,5,4,5,5,5,4,5,4,4,3,2,2,2,3,4,23,5.5,3.09090909090909,4,4,4,4,3,2,3,4,1,2,3,1,2,2,2,4,3,2,1,3,2,4,5,5,5,4,2,4,4,2,5,3,5,5,4.07692307692308,2,2,2,1, ,4,4,5, ,3,3,5,4,2,1,2,8,1, , ,3,1, ,2,Klub studenata pedagoijeg, , , , ,7, , , , ,5,6,5,5,6,6,6,7,2,2,5,3,4,3,5,5,4,5,3,1,4,3,4,3,4,4,3,2,1,4,5,5,4,2,3,1,2,3,4,5,4,4,4,5,5,4,1,1,3,3,4,4,1,3,5,5,3,2,5,2,5,1,4,2,4,1,2.69230769230769,3,2,3,2,2,2,3,4,3,3,2,5,3,3,36.5,37,1,36.75,1,4,6,1,1.62842092150745,.926536136825671,Serbia
1996,4,5,1,5,3,2,2,2,5,3,1,3,4,3,3,3,3.94444444444444,0,4.55555555555556,1.33333333333333,75,4.23076923076923, ,3,1,3,3,3,8,5,2,1,8,3,1,4,8,2,2,8,4,4,2,5, ,2, ,2,2,2,6,3,6, ,5, ,2,7,7,6, ,10:56:04,3.2,2,0,3,5,5,4,5,5,3,5,5,4,2,3,5,1,3,3,3,17,4,2.27272727272727,4,3,4,3,2,1,1,1,1,1,4,1,1,1,1,1,1,1,2,3,2,5,5,5,5,2,4,2,5,4,5,4,2,2,3.84615384615385,2,2,2,1, ,4,4,5, ,5,3,2,8,1, ,2,4,1, , ,1,1, ,1, , , , , , , , , , ,6,2,2,2,6,6,7,6,2,2,2,5,4,3,3,3,3,3,2,2,4,4,4,3,3,3,2,2,1,2,2,2,2,2,2,3,2,2,2,2,4,4,2,2,2,2,2,3,4,4,3,2,2,2,4,4,2,2,4,4,3,2,4,2,3,3,3.30769230769231,4,4,3,3,4,3,3,3,4,3,3,4,4,2,36.25,36.6,2,36.425,1,4,6,1,.592647364362812,.523687053472818,Serbia
1996,2,2,1,2,1,2,3,2,2,1,2,2,2,2,1,2,2.125,0,3.55555555555556,1.33333333333333,45,2.47058823529412, ,1.81818181818182,1,2,2,2,2,2,2,2,4, ,2, ,2,2,2,2,2,2,2,2,1,2,1,2,2,2,1,1,5,1,6, ,2,6,6,1,1,10:54:27,1.8,2,0,3,4,4,4,4,4,4,2,3,3,5,4,5,2,2,3,4,13,2.33333333333333,1.72727272727273,4,2,2,1,2,1,1,1,2,1,2,2,1,2,1,1,1,1,2,1,2,5,4,5,5,5,4,3,4,5,3,4,4,4,4.23076923076923,2,2,2,1, ,4,4,5, ,5,3,3,3,1, ,2,8,1, , ,2,1, ,1, , , , , , , , , , ,3,2,3,2,2,2,3,6,2,2,2,1,4,4,3,2,4,4,2,2,4,4,4,4,4,4,2,2,1,2,4,4,2,2,3,3,3,3,4,2,4,4,2,2,4,2,4,2,2,4,3,2,4,4,3,4,4,4,4,4,4,2,3,2,2,4,2.15384615384615,2,3,2,2,1,2,1,2,2,4,3,5,2,2,36.9,36.8,1,36.85,1,12,6,1,-.949242817295683,-1.10304263605237,Serbia
1996,3,3,2,4,2,2,3,4,2,4,2,2,3,2,2,2,3.44444444444444,0,4.22222222222222,2.11111111111111,75,4, ,2.81818181818182,1,3,4,3,5,4,5,5,5,3,2,3,4,4,2,2,2,4,2,3,3,8, ,3,3,4,5,3,3, ,3,3,3,6,6, , ,10:54:06,2.2,2,0,3,4,5,4,5,5,4,4,3,4,3,3,6,1,5,4,3,15,3.66666666666667,2.63636363636364,4,3,4,2,3,2,2,2,2,1,4,2,3,1,2,4,1,2,2,2,2,3,4,4,4,3,5,3,2,3,3,4,3,3,3.38461538461538,2,2,2,1, ,4,4,5, ,3,3,4,4,1, ,2,8,1, , ,3,1, ,1, , , , , , , , , , ,3,4,3,3,5,4,4,6,2,1,2,1,4,3,2,2,3,5,2,2,3,4,3,3,4,4,1,1,1,3,3,4,2,4,2,2,2,2,3,3,4,4,2,3,3,3,1,4,2,2,4,3,2,1,3,4,3,3,3,2,4,4,3,3,1,4,3.15384615384615,3,4,4,3,3,3,3,4,3,3,3,4,2,3,36.5,36.7,2,36.6,1,4,6,1,.168921818258188,.310414009344837,Serbia
1995,3,3,1,3,4,2,4,3,1,3,2,2,2,2,1,2,4.375,0,3.55555555555556,2.22222222222222,45,5.05555555555556, ,2.63636363636364,1,5,2,4,5,5,2,5,5, ,4, ,4,5,5,2,8,5,4,4,4,8,4,5,2,5,6,6,6,6,6,3,2,7,7,6,4,10:50:02,1.8,2,2,3,4,4,3,3,3,4,4,4,3,4,6,7,5,5,5,5,11,5.16666666666667,3.27272727272727,4,4,4,4,4,1,3,2,2,4,4,2,2,1,2,1,2,3,3,4,2,5,4,4,4,5,4,4,5,2,5,3,3,4,4,2,2,2,1, ,4,2,5, ,1, ,1,3,2,1,2,6,1, , ,1,2,3,1, , , , , , , , , , ,5,5,5,4,6,6,6,7,1,2,2,1,5,4,3,2,3,2,2,4,4,4,3,4,3,3,3,3,2,3,3,4,1,3,3,4,2,4,2,3,5,4,3,2,5,4,2,2,3,3,4,3,2,2,2,4,4,3,4,3,3,2,2,3,4,4,3,3,4,3,3,3,2,4,3,2,3,4,4,2,3,36.4,36.8,2,36.6,1,12,6,1,.957522140175128,1.28594071118949,Serbia
1996,5,4,2,4,3,3,4,5,3,4,2,2,3,2,3,2,3.70588235294118,0,4.33333333333333,2.66666666666667,65,4.78571428571429, ,3.54545454545455,1,4,2,4,5,4,8,2,5,3,2, ,2,8,2,2,4,4,2,5, ,7, ,5,3,3, , ,6,4,5,6,5,6,6,3,3,10:48:58,2.4,2,4,3,4,4,3,4,5,5,4,5,5,4,4,6,3,4,4,4,15,5,2.81818181818182,3,4,3,4,3,2,3,2,1,3,3,3,3,3,2,2,1,4,2,4,2,4,3,5,2,3,3,3,2,3,1,3,2,2,2.76923076923077,2,2,2,1, ,3,3,5, ,4,4,4,4,1, ,2,5,1, , ,3,1, ,1, , , , , , , , , , ,6,5,4,4,5,6,6,6,2,1,1,2,5,3,4,3,3,2,2,3,4,4,3,3,3,3,2,2,1,2,2,4,2,3,2,4,3,3,2,2,4,5,1,3,4,2,2,3,3,2,4,4,3,2,2,4,4,3,4,2,3,3,2,2,3,1,3.07692307692308,3,3,4,2,2,4,3,4,4,3,3,4,2,3,36.5,36.6,1,36.55,1,8,6,1,.390477659358645,1.03655794530439,Serbia
1995,2,2,2,2,2,2,2,2,4,2,2,2,2,2,3,2,2.82352941176471,0,4,3.33333333333333,65,4.5, ,2.18181818181818,1,2,2,3,4,3,5,2,2, ,2,3,2,3,2,2,5,4,2,5,3,7,4,5,4,3,5,4,4,3,4,4,4,7,7,4,4,10:48:24,2.2,2,0,3,5,5,4,5,5,4,2,3,3,3,3,2,1,2,3,3,11,4,3.54545454545455,4,4,4,4,3,2,4,4,3,3,4,4,4,2,4,2,3,4,3,4,2,3,2,4,3,4,3,3,4,3,4,4,4,3,3.38461538461538,2,2,2,1, ,4,4,5, ,2,2,3,3,1, ,2,7,1, , ,1,1, ,1, , , , , , , , , , ,3,5,4,4,4,4,4,6,2,3,3,2,4,3,2,2,2,5,2,3,4,3,4,3,2,2,2,2,2,3,4,4,2,4,2,2,2,3,4,4,3,3,2,3,3,3,4,2,2,2,2,4,2,2,4,4,2,3,4,4,4,3,3,4,2,4,2.92307692307692,3,4,4,2,2,3,3,4,2,3,3,4,2,3,36.4,36.7,1,36.55,1,8,6,1,-.357273304355398,.772505604955463,Serbia
1996,1,1,1,1,1,1,1,1,5,1,4,1,5,1,5,1,4.33333333333333,0,5,3.77777777777778,75,4, ,1.63636363636364,1,4,4,4,4,4,7,4,4,4,4,4,4,4,4,4,4,7,4,4,4,4,4,4,4,4,4,4,4,4,4,4,4,4,4,4,4,10:47:36,2.6,2,2,3,5,5,5,5,5,5,5,5,5,1,1,4,1,3,1,1,8,7,3.54545454545455,5,5,5,5,5,1,1,5,1,1,5,5,5,1,5,5,1,2,5,5,2,5,5,2,5,5,1,1,5,3,5,5,5,1,3.69230769230769,2,2,2,1, ,4,2,5, ,2,1,4,3,1, ,2,8,1, , ,1,1, ,1, , , , , , , , , , ,7,7,7,7,7,7,7,6,1,1,1,1,5,5,1,1,5,5,5,1,1,3,3,1,3,2,3,3,1,1,5,5,1,3,3,1,1,1,5,5,1,5,5,5,5,3,2,1,5,5,5,5,1,1,3,5,1,3,1,5,1,1,1,1,5,5,3.23076923076923,4,4,5,3,3,1,5,1,5,5,3,5,2,1,36.4,36.4,1,36.4,1,4,6,1,.922211677999742,.310414009344837,Serbia
1995,2,1,2,3,3,2,1,2,2,3,4,4,2,3,1,4,3.61111111111111,0,3.55555555555556,2.22222222222222,68,4.5, ,2.27272727272727,1,4,4,3,4,3,4,2,3,5,4,5,4,2,4,2,3,5,4,4,3,5,6,8,2,2,4, ,4,5,6,4,5,4, ,4,6,10:46:57,2.8,2,0,3,3,3,2,4,3,5,5,4,3,1,1,1,2,2,1,5,16,1.83333333333333,3.18181818181818,3,2,3,3,4,3,4,4,3,4,2,2,2,3,1,2,3,1,3,3,1,4,3,3,4,2,4,2,4,4,2,4,4,1,3.15384615384615,1,2,2,1, ,4,2,4,3,4,3,4,4,1, ,2,3,1, , ,3,1, ,1, , , , , , , , , , ,1,2,2,1,2,3,2,7,1,3,3,3,3,3,3,3,5,3,3,4,3,3,4,3,3,4,2,3,3,4,3,4,3,4,3,3,2,3,3,2,2,4,3,3,3,3,4,3,3,4,3,4,3,3,3,4,3,2,3,3,3,3,4,3,1,3,2.69230769230769,4,3,3,3,3,2,3,3,2,3,2,2,2,2,36.8,36.6,2,36.7,1,7,6,1,.310163666959729,.772505604955463,Serbia
1995,2,2,2,2,3,2,2,2,3,2,2,1,1,1,2,2,4.4375,0,2.55555555555556,2.77777777777778,58,3.23076923076923, ,2.18181818181818,1,2,2,2,5,5,8,2,5, ,8, ,5,5,5,5,5,5,2,3, ,3, ,2,2,2, , ,3, ,6,3,2,5,5,1,5,10:37:46,1.4,2,6,3,2,4,2,3,4,2,2,2,2,5,4,5,2,4,4,6,14,2,3.18181818181818,4,4,4,4,4,2,2,2,3,2,4,3,2,2,3,2,3,4,2,4,1,4,2,4,5,4,1,4,3,2,4,4,4,4,3.46153846153846,2,2,2,1, ,4,4,4,1,3,3,4,4,1, ,2,8,1, , ,1,1, ,1, , , , , , , , , , ,3,1,1,1,3,3,3,7,2,1,4,1,4,4,3,2,4,3,2,3,4,4,4,3,4,4,2,2,3,2,2,4,2,4,2,3,4,4,1,3,3,4,2,2,4,4,1,2,3,3,4,4,4,2,4,4,4,4,4,2,4,3,3,3,4,4,2.76923076923077,4,4,5,2,1,1,3,4,2,2,4,4,1,3,36.7,36.4,2,36.55,1,4,6,1,1.01048783343821,-.400496137748433,Serbia
1977,2,2,1,2,2,1,2,2,2,1,2,4,2,2,3,2,1.11764705882353,0,5,3.22222222222222,53,2.66666666666667, ,1.72727272727273,1,1,1,1,1,1,2,2,1,1,1, ,1,1,1,1,1,1,1,1,1,7,1,1,2,1,5, ,1,1, ,1,4,7,6, ,1,10:35:35,2.6,2,0,3,5,5,5,5,5,5,5,5,5,4,4,3,1,4,4,4,21,4.33333333333333,3.45454545454545,4,4,4,4,2,3,3,4,4,3,3,4,4,3,3,3,2,4,2,4,1,4,3,5,5,4,4,2,4,4,3,5,4,4,3.92307692307692,2,2,1,1, ,4,4,2,1,3,3,4,2,1, ,1, ,3,1,8,1,1, ,1, , , , , , , , , , ,5,5,3,3,5,5,5,7,1,4,2,4,4,5,2,2,5,4,2,2,3,4,4,4,4,4,1,1,4,2,2,2,2,3,2,3,2,2,4,2,4,4,2,4,4,4,4,2,1,2,4,3,2,1,4,4,3,3,4,2,3,5,3,4,4,2,2.53846153846154,3,3,4,2,2,2,3,3,2,2,3,4,2,2,36.9,36.9,2,36.9,1,6,6,1,-1.80292516753588,-.921830245616831,Serbia
1995,2,3,3,3,3,2,2,2,2,2,2,3,2,2,2,4,2.83333333333333,0,3.44444444444444,2.22222222222222,68,4.15384615384615, ,2.36363636363636,1,4,2,2,3,2,2,3,4,6,2,6,2,3,2,2,2,2,2,4,3,3, ,3,4,3,3,6, ,6, ,5,2,6,6, , ,10:31:55,2.6,2,0,3,4,4,4,4,4,3,2,4,2,2,4,1,1,1,3,1,16,2,2.90909090909091,3,3,4,2,2,3,2,3,3,3,4,3,3,2,3,2,2,2,1,2,1,4,4,4,2,4,2,3,4,4,4,3,4,4,3.53846153846154,1,2,2,1, ,4,4,4,2,3,1,4,3,2,1,2,5,1, , ,1,1, ,2,Trening, , , , ,3, , , , ,2,2,2,2,2,2,2,8,2,3,3,4,4,2,3,4,2,4,3,4,3,3,4,3,3,4,2,2,2,4,4,4,3,4,2,2,3,3,4,3,4,2,2,3,3,3,4,3,2,3,3,2,3,3,3,2,3,2,4,3,4,3,3,3,4,2,2.61538461538462,3,3,2,2,2,3,2,3,2,3,3,3,2,4,36.2,36.8,2,36.5,1,7,6,1,-.348964960314131,.452596038763492,Serbia
1996,4,4,3,4,4,2,4,4,3,4,4,3,4,2,4,2,3.875,0,3.33333333333333,2.44444444444444,45,3.8,15,3.63636363636364,1,2,2,3,5,8,4,5,2, ,4, ,2,3,2,2,8,5,5,2, ,5, ,2,3,5, , , , , , ,2,6,6,3,4,10:28:39,3,2,12,3,4,4,4,5,4,3,2,2,2,3,2,4,1,3,4,5,23,2.16666666666667,2.81818181818182,4,4,4,4,3,1,1,1,1,4,4,1,1,2,3,4,2,1,5,3,2,1,4,2,2,2,2,2,4,1,2,2,4,4,2.46153846153846,2,1,2,1, ,4,4,5, ,3,2,7,7,1, ,2,8,1, , ,2,1, ,2,Studentski klub, , , , ,7, , , , ,2,3,2,2,2,2,2,6,3,2,3,2,4,4,2,2,5,4,2,4,3,3,2,4,3,2,3,2,2,4,4,2,4,3,3,1,1,1,4,4,4,2,4,4,4,4,2,2,4,3,4,2,1,1,3,4,2,2,2,2,4,4,4,2,2,2,3.07692307692308,4,4,4,3,2,3,3,2,2,3,5,5,2,3,36.8,36.8,1,36.8,1,12,6,1,.533796594070503,.125577371100587,Serbia
1994,2,2,1,2,2,4,2,1,1,4,2,2,4,2,2,2,4.05882352941176,6,3.66666666666667,1.22222222222222,53,3.25, ,2.09090909090909,1,4,2,4,2,8,8,8,4, ,2,5,2,2,8,2,4,2,2,4, ,2, ,2,4,2, , , , , , ,4,4, ,4, ,10:20:12,2.4,2,8,3,4,4,3,4,4,4,3,3,4,5,7,7,7,7,7,7,15,6.33333333333333,2.09090909090909,4,4,2,4,2,1,1,1,2,1,1,1,1,1,1,1,2,2,1,1,2,1,4,4,4,4,4,2,2,2,4,5,4,4,3.38461538461538,2,2,2,1, ,4,4,5, ,6,5,2,2,1, ,2,8,1, , ,3,1, ,1, , , , , , , , , , ,7,5,7,6,7,6,7,6,2,2,3,3,4,3,4,3,3,2,2,4,4,4,4,3,3,4,3,3,2,2,2,4,2,4,3,4,2,3,2,4,3,4,4,2,4,4,4,2,3,3,4,4,3,2,4,4,4,4,4,2,4,4,4,3,2,4,3.76923076923077,4,3,5,3,3,4,3,4,3,4,5,4,4,4,36.5,36.9,1,36.7,1,6,6,1,.689578044844262,-.382723384071101,Serbia
1995,5,4,2,4,2,3,4,2,5,2,2,2,3,2,2,3,3,0,4.88888888888889,2.22222222222222,58,5.52941176470588, ,3.18181818181818,1,3,3,2,4,3,7,2,3,3,2,4,2,2,2,3,2,5,2,8,4,8, ,3,4,5,7,7,4,4,6,5,8,6,6,5,4,10:18:50,2.4,2,0,3,5,5,4,5,5,5,5,5,5,4,3,6,3,3,3,3,16,3.66666666666667,2.90909090909091,4,4,2,4,2,2,3,4,2,3,2,2,2,2,3,2,1,2,2,4,2,4,4,4,4,4,4,4,4,3,4,4,4,4,3.92307692307692,2,2,2,1, ,4,4,5, ,8,4,6,6,1, ,2,8,1, , ,1,1, ,1, , , , , , , , , , ,3,4,5,3,4,3,4,6,3,2,3,2,4,3,3,3,3,2,3,2,4,3,4,3,3,3,2,2,1,1,3,4,3,3,2,4,3,3,2,2,3,5,2,2,4,4,2,2,4,3,4,4,2,2,4,4,3,2,3,2,4,2,2,2,2,2,2.76923076923077,3,3,4,2,3,2,2,3,2,3,3,5,2,4,36.5,37,2,36.75,1,4,6,1,-.20772311161259,1.72387065474204,Serbia
1996,4,3,2,2,3,3,4,2,2,4,2,3,4,2,3,3,6.55555555555556,0,5,4.22222222222222,75,4, ,2.81818181818182,1,8,5,7,8,8,8,5,7,5,5,6,4,5,8,8,8,8,5,3,4,8, ,3,1,4,3,5,5,3,5,3,1,7,7,1,5,10:17:59,3,2,0,3,5,5,5,5,5,5,5,5,5,2,2,5,3,4,1,1,13,6,3.72727272727273,5,4,5,4,3,3,4,4,2,4,3,4,5,2,4,5,5,5,3,5,2,2,1,5,2,1,1,1,1,1,1,1,2,1,1.53846153846154,2,2,2,1, ,4,4,5, ,2,2,4,4,1, ,2,4,1, , ,2,1, ,1, , , , , , , , , , ,6,7,5,4,7,7,7,6,1,3,3,1,5,4,4,4,3,2,4,3,3,4,4,3,4,4,1,1,3,3,3,4,2,5,2,4,2,2,3,2,3,4,3,4,3,3,2,4,2,5,2,5,4,1,5,5,4,4,3,2,4,4,3,4,2,4,4.23076923076923,5,3,5,3,4,5,5,5,5,4,4,4,3,4,36.12,36.39,2,36.255,1,4,6,1,2.80543632735363,.310414009344837,Serbia
1996,4,4,1,4,2,3,4,4,5,2,2,1,3,2,2,2,4.70588235294118,0,4.44444444444444,3,65,5.2, ,3.18181818181818,1,8,5,5,8,8,2,2,8,5,2, ,2,8,2,7,4,2,2,3,3,8,3,5,7,5,3,6, , ,6,3,8,7,6,5, ,10:13:46,2,2,4,3,5,4,4,5,5,5,4,4,4,5,4,5,1,6,6,6,19,6.5,3.54545454545455,4,5,4,4,4,2,3,5,2,2,4,4,4,2,4,1,2,4,1,5,2,3,2,5,1,1,1,3,2,4,2,1,3,5,2.53846153846154,2,2,2,1, ,2,2,5, ,6,4,6,5,2,1,2,6,1, , ,2,2,4,1, , , , , , , , , , ,7,6,7,6,7,6,7,8,3,4,2,2,5,5,5,5,2,2,2,4,4,5,4,4,4,5,1,2,2,4,2,4,2,2,1,4,4,2,4,2,4,5,1,1,4,4,4,4,1,2,4,4,4,1,4,4,4,5,4,4,5,4,4,4,4,4,2.53846153846154,3,4,5,2,2,1,2,2,2,2,3,5,2,3,36.8,36.8,2,36.8,1,10,6,1,1.23792875156789,1.41943383881034,Serbia
1996,4,3,1,4,5,1,5,4,1,3,5,1,2,1,2,1,3.88888888888889,0,2.33333333333333,4.88888888888889,44,3.5, ,3.27272727272727,1,8,2,2,3,5,5,2,2,6,2,7,2,3,2,5,8,5,1,4, ,7,1,3,1,1,6,1,4, ,5,4,1,7,7,1,3,10:05:15,1.4,2,0,3,2,2,3,4,2,2,2,2,2,3,4,7,1,5,8,8,11,5.16666666666667,4.72727272727273,5,5,5,5,4,3,5,5,5,5,5,5,5,5,5,5,4,5,5,5,1,1,3,4,4,4,3,4,2,2,3,1,4,4,3,2,2,2,1, ,4,2,5, ,2,2,5,4,1, ,2,7,1, , ,2,1, ,1, , , , , , , , , , ,4,6,6,4,6,5,5,6,2,2,2,2,4,5,3,2,5,3,3,4,5,5,2,3,4,2,1,4,1,1,4,5,1,5,1,4,1,3,4,4,3,5,4,4,4,5,1,5,5,5,2,5,5,1,1,5,4,5,5,1,5,5,5,5,1,5,3.46153846153846,5,5,4,3,3,3,3,3,3,3,5,5,1,4,36.9,37.1,1,37,1,12,6,1,.545566748128965,-.151677586265788,Serbia
1995,3,2,1,2,1,2,2,2,3,1,2,3,2,2,2,2,3.55555555555556,0,4.11111111111111,1.55555555555556,58,3.46666666666667, ,1.90909090909091,1,3,3,4,4,3,5,4,4,6,2,6,2,2,2,2,2,8,2,3,3,5,3,4,4,4,3,3, ,3, ,3,2,5,4,3, ,9:59:47,2.2,2,0,3,4,5,4,5,5,4,3,3,4,4,5,6,2,5,5,5,18,4.66666666666667,2.72727272727273,4,3,4,2,4,2,2,1,3,1,4,3,2,1,1,1,1,2,1,2,2,4,4,5,4,4,2,4,3,3,4,4,3,5,3.76923076923077,2,2,2,1, ,4,4,5, ,7,4,5,5,1, ,2,8,1, , ,4,1, ,1, , , , , , , , , , ,5,5,6,5,3,4,3,6,3,2,4,4,3,2,2,3,2,5,3,3,4,4,4,4,4,3,1,1,3,4,2,3,4,3,2,1,4,3,3,2,5,4,2,4,4,4,2,2,3,3,5,4,3,3,4,4,2,4,4,3,4,4,4,2,3,2,2.76923076923077,2,4,4,3,2,2,2,3,3,2,3,5,2,4,36.3,36.3,2,36.3,1,4,6,1,.263083050725882,-.18248369263983,Serbia
1996,2,2,1,2,1,2,2,3,2,1,2,1,3,2,2,2,5.33333333333333,0,4.77777777777778,1.44444444444444,83,3.78571428571429, ,1.81818181818182,1,8,5,4,8,5,5,5,8,3,2,6,4,8,4,5,4,8,4,3,3,5, ,8,3,2, , ,6, ,5,5,2,3,1,3,4,9:56:43,2,2,0,3,5,5,5,5,4,5,5,5,4,3,2,4,1,2,2,2,9,2.16666666666667,2.54545454545455,3,4,3,3,3,1,3,2,1,2,3,1,2,1,1,2,1,1,1,3,2,3,1,3,5,4,4,3,5,1,5,4,5,4,3.61538461538462,2,2,2,1, ,4,4,5, ,1, ,3,3,1, ,2,8,1, , ,1,1, ,1, , , , , , , , , , ,1,2,3,3,2,2,2,5,2,1,3,1,4,3,1,2,5,4,4,4,4,4,3,3,3,3,2,2,1,3,4,3,2,4,2,2,2,4,4,4,3,4,3,4,4,4,3,2,4,4,4,4,3,2,4,4,4,4,4,4,5,3,3,4,4,3,3.38461538461538,3,4,4,3,4,4,3,5,3,3,3,4,2,3,35.7,35.6,2,35.65,1,4,6,1,1.76966277020899,.112374754083141,Serbia
1995,2,2,2,2,1,2,2,2,2,2,2,2,2,1,2,1,2.47058823529412,0,2.55555555555556,2.22222222222222,58,2.58333333333333, ,1.90909090909091,1,3,2,1,2,4,2,5,1, ,2,6,1,4,2,2,1,3,1,1, ,5, ,2,2,2, , , ,1,1, ,2,7,6,1,1,9:55:26,1.6,2,1,3,3,2,4,3,1,2,3,3,2,4,5,6,1,5,4,5,14,3.66666666666667,2.63636363636364,2,3,2,3,2,2,2,4,4,3,2,2,2,3,2,1,2,3,1,4,1,1,2,5,2,3,1,2,2,2,2,3,3,4,2.46153846153846,2,2,2,1, ,1, ,4,1,3,3,6,7,1, ,2,8,1, , ,2,1, ,1, , , , , , , , , , ,4,4,3,2,5,4,4,6,3,1,3,2,5,5,3,2,4,3,3,2,3,5,3,3,4,3,1,3,1,3,4,5,2,4,2,4,2,2,5,5,4,4,2,2,4,2,5,4,1,2,3,2,3,2,4,4,4,3,3,3,5,3,5,4,3,2,2.92307692307692,3,3,5,2,2,2,3,4,2,2,5,5,2,3,36.2,36.4,2,36.3,1,4,6,1,-.656373689841016,-.998845511551935,Serbia
1996,3,3,2,3,3,2,3,2,2,3,4,2,3,2,3,3,4.22222222222222,0,4.88888888888889,2.33333333333333,55,4.52941176470588, ,2.72727272727273,1,5,5,2,8,8,5,5,5,5,2,3,2,3,2,4,5,5,2,3,4,8,3,5,2,4,5,4,5,4,6,5,3,6,6, ,4,9:50:40,2.6,2,14,3,5,5,4,5,5,5,5,5,5,4,4,5,2,3,4,4,16,6.33333333333333,2.27272727272727,4,3,3,3,2,1,2,1,1,2,3,2,3,2,2,2,2,3,2,3,1,4,3,3,2,4,3,3,4,2,4,3,3,3,3.15384615384615,2,2,2,1, ,4,4,5, ,6,4,6,6,1, ,2,6,1, , ,1,1, ,1, , , , , , , , , , ,6,7,6,6,7,6,6,6,3,1,2,1,5,4,4,4,3,3,2,3,4,4,4,3,4,4,2,2,1,2,2,3,2,3,2,4,2,2,3,3,4,4,2,3,3,3,2,4,2,3,2,4,3,2,4,4,4,4,3,3,4,2,2,3,2,1,3.07692307692308,3,3,3,3,3,3,3,3,4,3,4,4,2,3,36.3,36.7,2,36.5,1,-2,6,1,.828050445532048,.799687463520794,Serbia
1994,2,3,2,2,2,2,1,1,3,1,2,3,1,2,1,2,2.66666666666667,0,4.77777777777778,3.11111111111111,65,2.25, ,1.90909090909091,1,2,1,2,2,5,8,2,1,1,1,1,1,7,1,2,7,2,2,2, ,8,1,2,1,1,1, ,1,1,1,1,2,6,6,1,1,9:45:38,1.8,2,0,3,5,5,4,5,5,5,4,5,5,3,4,4,1,2,1,4,15,3.5,3,4,4,4,3,3,2,3,2,2,2,4,4,4,4,4,2,2,3,1,4,1,5,5,4,4,4,5,4,4,4,5,4,3,5,4.30769230769231,2,2,2,1, ,4,4,4,2,4,3,4,4,1, ,2,5,1, , ,1,1, ,1, , , , , , , , , , ,3,4,4,4,3,3,3,7,2,2,3,3,5,3,4,3,4,3,2,3,3,3,3,3,5,5,1,1,1,3,3,3,3,2,1,3,3,2,2,3,4,3,2,2,4,3,3,2,3,3,2,4,1,2,4,4,1,2,5,1,5,4,4,3,3,2,3.15384615384615,3,4,5,2,2,3,3,3,3,3,5,5,2,3,36.7,36.6,1,36.65,1,8,6,1,-.490206809015673,-1.30690657529235,Serbia
1995,4,4,1,4,2,3,4,4,1,3,2,2,2,2,2,2,2.70588235294118,0,3.77777777777778,2.33333333333333,42,4, ,2.90909090909091,1,2,1,2,4,4,4,2,5,6,3, ,2,2,1,3,1,3,1,3,4,5,4,3,2,3,5,5,3,4,5,4,4,5,6,3,4,9:44:53,2,2,4,3,4,4,4,5,5,3,3,3,3,3,4,5,1,4,4,4,10,3.83333333333333,2.45454545454545,2,4,3,3,1,3,2,2,2,2,3,2,4,1,4,1,3,2,1,3,2,2,2,5,2,2,1,2,2,2,2,2,3,2,2.23076923076923,1,2,2,1, ,4,4,5, ,3,1,3,3,1, ,2,8,1, , ,1,1, ,1, , , , , , , , , , ,5,3,4,4,3,4,4,6,2,3,3,4,4,2,3,3,3,4,2,1,3,3,3,3,4,4,1,1,1,3,4,3,3,2,2,2,1,3,5,4,3,3,1,2,3,1,5,3,1,1,5,2,1,4,3,2,1,3,3,4,3,1,3,2,3,1,3.07692307692308,4,2,3,3,3,3,3,3,3,4,4,4,3,2,35.2,35.8,2,35.5,1,7,6,1,-.456973432850604,.310414009344837,Serbia
1980,2,2,1,2,2,1,4,1,2,2,2,2,1,2,2,1,2.76470588235294,0,3.44444444444444,1.66666666666667,65,4.16666666666667, ,1.90909090909091,1,2,2,5,2,2,2,2,2,3,2, ,2,2,2,2,8,5,2,2, ,8, ,2,3,3,6,3, , ,6,3,2,6,6, , ,9:43:49,1.6,2,1,3,4,4,4,2,4,4,3,4,2,5,6,5,6,6,6,6,21,3.16666666666667,1.45454545454545,2,2,1,2,1,1,1,1,2,1,2,2,2,1,2,2,2,1,1,2,2,3,4,4,4,4,4,2,4,3,4,4,4,4,3.69230769230769,1,2,2,1, ,4,2,5, ,4,4,3,3,1, ,2,8,3,1,6,4,1, ,1, , , , , , , , , , ,6,3,3,2,3,2,3,7,2,2,4,2,2,4,2,2,2,4,3,2,4,4,4,2,4,2,2,2,2,2,4,2,3,3,2,1,2,2,3,3,4,2,4,4,4,4,2,2,2,3,4,2,2,2,2,4,4,3,4,2,2,4,4,4,4,2,2.76923076923077,3,3,3,3,3,2,3,3,2,3,3,4,2,3,36.7,36.7,1,36.7,1,8,6,1,-.407123368603002,.464444541215046,Serbia
1996,4,4,2,3,4,3,4,4,5,4,4,2,2,2,5,2,4.38888888888889,0,3.77777777777778,3.66666666666667,61,4.42857142857143, ,3.72727272727273,1,5,3,5,5,5,4,8,4,4,4,5,3,2,3,8,5,4,2,5,4,8,3,3,3,3,6,4, , , , ,4,6,5,4,4,9:42:57,2.6,2,4,3,4,3,4,4,4,4,4,4,3,3,4,3,2,3,3,3,15,4.33333333333333,2.36363636363636,2,4,3,2,3,2,2,2,1,2,3,3,3,4,4,3,4,4,4,4,1,4,4,5,5,4,4,5,5,3,4,4,4,4,4.23076923076923,2,2,2,1, ,4,4,4,1,2,3,4,4,1, ,2,8,1, , ,2,1, ,1, , , , , , , , , , ,5,5,4,2,5,5,4,7,2,1,5,4,2,4,5,4,4,5,5,4,2,4,3,3,2,2,3,2,3,4,5,4,4,5,4,1,1,1,5,5,2,3,2,4,4,4,5,2,3,4,4,4,2,2,4,4,2,2,2,4,5,1,2,2,2,4,3.53846153846154,3,4,4,3,4,4,3,5,3,3,4,4,2,4,36.8,36.9,1,36.85,1,1,6,1,.96929229423359,.706492519868231,Serbia
1996,4,4,1,2,1,1,2,5,1,4,1,1,1,2,1,2,3.27777777777778,0,3.77777777777778,1,65,3.11111111111111, ,2.36363636363636,1,1,2,1,5,4,4,1,1,7,3,4,1,8,1,8,4,3,1,1,3,5,5,3,3,2,3,3,1,3,1,1,5,5,3,5,4,9:38:39,1.4,2,0,3,5,4,4,4,4,4,2,4,3,5,5,5,6,3,6,2,23,5.33333333333333,1,1,1,1,1,1,1,1,1,1,1,1,1,1,1,1,1,1,1,1,1,2,3,2,5,5,5,3,3,5,3,5,5,5,4,4.07692307692308,2,2,2,1, ,4,4,5, ,6,1,5,3,2,1,2,8,3,1,6,6,1, ,1, , , , , , , , , , ,7,5,4,6,5,5,6,8,3,1,2,4,4,4,1,1,4,4,2,4,2,3,3,3,4,4,1,1,4,4,1,2,4,4,1,1,1,1,5,5,4,2,4,1,3,3,3,1,3,2,1,1,1,1,3,4,1,1,1,5,3,1,1,3,1,4,3.23076923076923,3,4,5,2,2,4,4,3,3,4,2,5,2,4,36.8,35.8,1,36.3,1,8,6,1,.0276799695566459,-.511082160629608,Serbia
1995,3,2,3,2,2,4,3,4,4,4,2,2,2,1,2,2,3.35294117647059,0,4.11111111111111,2.44444444444444,70,5.16666666666667, ,3,1,4,2,2,2,2,5,8,2,3,2, ,2,2,2,5,5,4,5,5,4,8,4,4,3,5,5,6,4,3,6,6,8,6,7,3,6,9:22:37,1.8,2,0,3,5,4,4,4,4,4,4,4,4,5,4,3,4,4,1,1,10,4.33333333333333,2.27272727272727,4,4,3,2,2,1,1,1,3,2,2,2,3,3,2,4,2,1,3,2,2,4,4,2,3,3,4,3,2,4,3,2,3,2,3,2,2,2,1, ,4,4,5, ,3,1,4,3,1, ,2,3,1, , ,1,1, ,1, , , , , , , , , , ,5,5,5,4,3,4,5,6,1,4,2,4,2,2,2,2,2,4,4,2,3,2,3,2,3,4,3,2,2,4,4,3,2,2,3,1,2,2,4,3,3,4,3,1,4,2,2,2,4,2,4,2,3,4,4,4,2,2,2,2,2,4,2,3,3,2,3.07692307692308,4,2,3,3,3,3,4,4,2,2,3,4,3,4,37,37.1,1,37.05,1,1,6,1,.0913772738730275,1.3886277324363,Serbia
1994,5,5,4,5,4,4,5,5,2,4,4,2,2,2,2,2,4.72222222222222,0,3.44444444444444,2.22222222222222,56,4.94117647058824, ,4.27272727272727,1,7,8,2,8,7,7,2,8,6,4,6,1,5,1,5,4,3,1,7,3,8,3,5,4,5,5,3,3,3,7,6,5,7,7, ,3,22:16:28,2,2,18,2,4,3,4,4,3,3,1,4,5,3,2,4,1,4,4,4,14,7,3.18181818181818,4,4,4,4,4,1,3,2,4,1,4,3,3,1,2,2,2,3,1,3,2,2,2,1,1,2,1,1,1,1,1,1,2,3,1.46153846153846,2,2,2,1, ,4,2,5, ,3,2,7,7,1, ,2,8,1, , ,2,1, ,1, , , , , , , , , , ,7,7,7,7,7,7,7,6,3,2,4,4,4,4,4,1,4,5,4,4,2,4,3,4,3,3,3,4,1,3,5,4,4,4,4,2,2,3,5,4,4,5,3,1,4,3,4,4,2,2,4,3,2,1,3,4,3,2,4,3,4,4,4,2,2,4,2.92307692307692,3,3,3,2,2,2,4,4,3,2,4,4,3,3,36.6,36.5,1,36.55,1,6,6,1,1.25177599163667,1.18023348343543,Serbia
1996,4,3,2,3,4,3,3,4,4,4,2,4,3,2,2,2,4.23529411764706,0,3.77777777777778,2.55555555555556,56,4.27777777777778, ,3.27272727272727,1,4,3,7,4,3,5,3,4, ,5,3,5,4,4,5,5,4,4,7,3,1,5,5,3,5,4,4,4,3,4,3,5,7,5,5,4,22:12:17,2.6,2,0,2,4,4,4,4,5,4,1,4,4,4,5,4,2,2,5,5,49,5.5,3.09090909090909,2,3,3,4,3,3,2,3,4,4,3,2,3,2,2,3,3,2,3,3,2,1,1,4,3,4,3,1,2,1,2,3,2,3,2.30769230769231,2,2,2,1, ,4,4,5, ,4,4,4,5,2,1,2,8,3,1,5,6,2,8,2,KSP,PDS,posao, , ,10,3,4, , ,6,6,5,5,6,5,5,9,5,2,2,4,5,1,1,1,1,5,4,3,4,3,3,4,4,2,2,2,2,4,4,2,3,3,2,1,4,4,4,4,4,4,2,2,4,3,4,3,3,3,4,4,2,2,2,3,2,3,4,4,3,3,3,2,3,4,2.69230769230769,2,2,3,3,2,2,3,3,2,3,4,2,2,4,36,36.5,1,36.25,1,6,6,1,.839128237587071,.567131562461851,Serbia
1996,1,2,1,2,2,1,1,2,1,2,1,4,3,2,1,2,2.0625,8,4.11111111111111,4.77777777777778,50,2.30769230769231, ,1.45454545454545,1,2,2,1,1,5,7,4,1, ,1, ,1,1,1,2,1,2,1,1, ,3,1,1,1,1, , ,3, ,4,3,1,5,5,1, ,17:39:48,2.4,2,5,2,5,4,4,4,4,4,4,4,4,2,4,6,4,3,4,4,35,2.16666666666667,4.18181818181818,4,4,4,4,4,4,4,5,4,5,4,5,5,5,4,5,5,5,4,5,1,5,5,5,4,5,5,4,5,4,5,5,5,5,4.76923076923077,2,2,2,1, ,4,4,5, ,5,4,5,4,1, ,2,3,3,6,3,2,2,5,2,vrtic,porodia,komsije, , ,2,3,1, , ,3,2,3,2,1,2,2,8,2,4,1,2,4,4,4,3,4,4,4,4,5,5,4,4,3,4,1,1,2,3,4,4,2,2,1,2,4,2,2,2,5,5,1,3,3,4,2,3,2,3,3,4,4,4,4,4,4,4,4,5,4,4,4,1,4,4,2.23076923076923,1,4,4,1,1,1,1,4,2,1,3,5,2,4,36.3,36.3,2,36.3,1,8,6,1,-1.00220851055876,-1.25358831426036,Serbia
1996,3,4,3,2,4,4,5,2,2,4,4,3,4,3,2,4,3.94444444444444,2,4.55555555555556,2.55555555555556,83,3.86666666666667, ,3.36363636363636,1,4,2,5,4,8,2,2,7,3,2,4,4,5,4,4,5,4,2,8,1,8, ,2,8,4, ,1, ,1,1,4,4,6,3,4,3,13:29:26,3.2,2,12,2,4,4,4,4,5,5,5,5,5,4,7,5,6,6,7,7,21,6.16666666666667,2.63636363636364,2,3,3,3,3,1,3,3,3,2,3,3,3,1,3,3,2,2,3,3,2,4,3,3,3,3,3,3,2,2,4,2,3,3,2.92307692307692,1,2,2,1, ,4,4,5, ,4,4,4,4,2,1,2,7,1, , ,1,1, ,2,ars akta, , , , ,6, , , , ,6,7,7,6,6,5,5,7,2,1,1,1,5,5,5,1,5,1,1,3,4,4,4,4,4,4,4,2,1,1,1,5,1,2,2,5,1,3,4,2,4,4,2,2,3,4,4,1,2,2,2,2,4,2,5,5,5,5,4,4,5,4,4,5,2,5,3.69230769230769,4,4,5,3,3,4,4,4,3,3,4,4,3,4,36.8,36.7,1,36.75,1,4,6,1,.592647364362812,.187189583848671,Serbia
1995,2,2,1,2,4,2,3,2,2,2,3,2,1,2,1,2,3.55555555555556,0,4.11111111111111,2.44444444444444,83,4.16666666666667, ,2.27272727272727,1,5,4,2,4,3,3,5,5,5,2,3,2,2,4,4,4,5,2,4, ,5, ,5,2,3,3, , , ,6,3,3,6,5, ,5,11:14:43,1.6,2,0,2,4,4,4,5,5,5,3,4,3,5,4,5,3,3,5,4,34,5,2.09090909090909,4,2,3,3,3,1,1,1,1,1,3,3,3,2,3,1,2,3,2,3,1,3,1,3,5,4,1,1,4,3,4,4,3,4,3.07692307692308,2,2,2,1, ,4,4,5, ,6,6,6,6,1, ,2,8,1, , ,2,2,8,2,Crveni krst, , , , ,8, , , , ,4,5,5,5,6,5,6,7,4,1,2,2,5,5,3,4,4,4,2,2,5,3,3,3,4,4,2,1,1,1,3,5,2,4,3,2,3,4,4,3,4,5,3,4,3,3,3,2,3,2,4,3,4,1,4,5,4,3,4,3,4,4,3,3,2,4,2.84615384615385,3,3,3,2,2,2,3,3,3,3,5,5,2,3,36.3,36.4,1,36.35,1,4,6,1,.263083050725882,.464444541215046,Serbia
1996,1,1,5,2,1,1,2,1,2,3,1,3,3,1,2,1,1.83333333333333,0,2.66666666666667,1.77777777777778,45,3, ,1.81818181818182,1,1,1,1,1,4,1,1,1,4,1,7,1,1,1,1,4,1,1,4,1,4,1,1,1,5,4, ,4, , , ,1,7,7,1,1,10:43:32,2,2,0,2,4,4,4,4,4,1,1,1,1,5,7,4,4,4,4,4,53,2.83333333333333,1.45454545454545,1,3,1,4,1,1,1,1,1,1,1,1,1,1,1,3,1,4,2,2,1,5,4,5,5,5,2,5,5,5,5,5,3,5,4.53846153846154,2,2,2,1, ,4,4,5, ,3,3,4,4,1, ,2,8,1, , ,1,2,8,2,klub pedagoga,trkacka mreza,joga,crtanje,debata,10,12,4,7,20,4,1,1,1,5,5,6, , ,5,5,5,5,1,2,5,1,5,5,5,5,5,5,1,4,5,1,1,1,3,5,1,3,3,2,1,1,1,1,5,3,5,4,4,3,1,5,3,1,3,4,3,3,3,5,5,2,2,2,4,4,1,2,2,2,4,1.84615384615385,2,2,3,3,2,1,2,2,2,2,1,3,1,1,36.7,36.7,2,36.7,1,12,6,1,-1.19641605252338,-.613769181876414,Serbia
1995,2,2,2,2,2,2,2,2,2,2,2,2,2,2,2,2,3.64705882352941,0,3.55555555555556,2.55555555555556,58,4.53333333333333, ,2,1,3,2,3,5,5,4,2,4,3,4, ,4,5,4,4,5,3,2,5,5,8, ,5,2,4, ,3,5,3,5,5,3,6,6, ,3,10:41:14,2,2,2,2,4,2,4,4,2,4,4,4,4,1,3,4,1,3,1,3,16,5.33333333333333,1.18181818181818,1,1,1,1,1,1,1,1,1,3,1,2,4,2,2,3,2,1,3,4,2,2,1,2,4,4,1,1,2,1,2,2,4,3,2.23076923076923,2,2,2,1, ,4,4,5, ,4,3,7,7,1, ,2,2,1, , ,1,1, ,1, , , , , , , , , , ,5,5,6,6,5,5,6,6,2,1,5,4,2,5,2,2,5,5,5,5,2,4,2,2,5,4,1,2,1,4,5,2,4,5,1,1,1,1,5,5,3,4,3,4,5,4,4,2,2,2,4,4,2,1,3,4,1,1,4,1,4,4,2,2,1,4,3.46153846153846,3,3,4,3,3,3,4,4,4,3,3,3,4,4,36.5,36.5,2,36.5,1,4,6,1,.340627595111042,.803311711329504,Serbia
1997,4,4,4,3,4,4,4,4,3,4,4,1,2,1,2,1,6.83333333333333,0,3.22222222222222,3.44444444444444,61,5.0625, ,3.81818181818182,1,5,8,8,7,7,7,8,7,6,5,7,5,7,8,7,8,8,5,8,3,8,3,8,8,5,1,3,6, ,6,3,8,5,3,3, ,10:39:15,1.4,2,3,2,3,2,4,3,3,3,3,4,4,5,4,4,1,4,4,4,40,5.66666666666667,3.54545454545455,4,4,4,4,4,2,3,4,3,3,4,4,4,3,4,3,3,3,3,4,2,2,2,2,2,4,1,1,2,2,3,2,2,4,2.23076923076923,2,2,2,1, ,4,4,5, ,4,4,5,4,1, ,2,8,3,4,2,2,2,8,2,BIMUN,Casovi engleskog, , , ,7,4, , , ,6,5,5,4,7,7,6,8,3,2,4,3,4,4,3,3,3,5,3,3,4,4,2,3,4,2,2,4,2,3,5,5,3,4,2,3,2,4,4,4,4,3,2,4,3,3,4,3,2,3,4,4,3,2,4,4,3,3,4,3,5,4,3,3,2,4,3.53846153846154,5,5,5,3,2,2,3,4,3,3,5,5,2,4,35.9,35.5,2,35.7,1,1,6,1,3.04083940852287,1.29235865001742,Serbia
1992,2,4,1,4,1,1,2,4,3,2,1,2,4,3,4,2,3.11111111111111,0,3.55555555555556,1.22222222222222,71,4.66666666666667, ,2.27272727272727,1,2,3,3,3,4,1,2,4,4,4,3,3,4,3,3,3,4,3,5,4,8,4,5,4,3,4,4,6,3,5,5,5,5,6,4,4,10:19:07,3,2,2,2,4,4,4,3,4,4,3,4,2,3,2,3,2,2,2,2,17,3.83333333333333,1.54545454545455,1,1,3,2,1,1,2,1,1,2,2,1,1,1,2,2,1,1,1,1,2,3,3,3,4,3,2,3,5,4,2,2,3,4,3.15384615384615,2,2,2,1, ,4,4,5, ,3,2,6,4,1, ,2,8,1, , ,1,1, ,2,ZKK Bor, , , , ,5, , , , ,4,4,3,3,5,4,4,6,2,4,2,3,5,1,1,2,3,3,3,2,3,3,4,3,3,3,3,2,1,3,2,2,3,2,3,4,2,2,3,3,5,2,2,4,3,2,2,2,2,2,2,2,1,3,5,3,1,1,5,5,4,2,5,3,4,4,3,3,2,3,3,3,3,3,3,4,4,2,4,3,3,36.5,36.8,2,36.65,1,8,6,1,-.113561879144895,.926536136825671,Serbia
1995,4,4,1,3,4,2,5,3,3,2,4,2,4,2,3,3,4.72222222222222,4,4.11111111111111,3.11111111111111,44,5.11764705882353,10,3.18181818181818,1,5,5,3,7,5,7,3,8,5,2,7,3,5,1,4,8,5,2,5,3,7,5,5,5,5,6,6,3, ,5,5,5,7,7,3,5,10:09:46,2.8,2,0,2,4,4,4,5,4,4,4,4,4,4,5,4,1,3,4,3,11,5.5,2.45454545454545,4,4,2,4,2,1,1,3,3,1,2,4,4,2,4,3,2,3,2,4,2,2,3,5,2,4,4,2,2,3,3,3,3,4,3.07692307692308,2,1,2,1, ,4,2,5, ,8,2,6,5,1, ,2,4,1, , ,1,1, ,1, , , , , , , , , , ,5,6,5,4,7,6,6,6,2,4,4,4,4,3,3,3,3,5,4,5,4,3,3,4,3,3,2,2,2,4,5,3,4,3,2,2,3,4,2,2,4,3,2,2,2,4,2,3,2,5,4,4,2,3,5,4,2,2,5,3,4,3,3,3,1,1,3.53846153846154,4,4,4,3,3,3,4,4,4,3,4,4,2,4,36.6,36.5,1,36.55,1,12,6,1,1.25177599163667,1.34332463482741,Serbia
1996,4,4,3,5,4,4,4,5,4,5,3,3,3,3,2,3,4.83333333333333,0,3.77777777777778,2,83,4.35294117647059, ,4.09090909090909,1,5,5,4,8,5,5,3,4,5,4,5,4,3,5,5,5,8,4,3,4,4, ,4,5,4,4,6,4,3,4,5,4,6,6,4,4,10:07:12,2.8,2,20,2,5,4,4,3,4,4,2,4,4,3,6,5,3,5,4,5,15,5.33333333333333,2.81818181818182,4,3,4,2,4,2,2,2,2,2,4,2,2,2,2,2,2,2,2,2,2,2,4,3,4,3,2,3,3,3,3,3,4,4,3.15384615384615,2,2,2,1, ,4,2,5, ,4,4,4,3,1, ,2,8,1, , ,1,2,4,1, , , , , , , , , , ,5,7,5,4,6,5,6,7,2,1,4,4,2,5,2,3,3,5,4,4,3,3,2,4,3,2,2,1,1,3,4,4,3,5,2,1,1,2,4,4,4,3,2,1,4,4,4,1,2,3,3,4,1,1,5,5,1,2,4,4,5,3,4,4,1,4,3.30769230769231,3,4,5,1,3,3,4,3,3,4,4,4,2,4,36.6,36.5,2,36.55,1,4,6,1,1.34593722410437,.636596312128808,Serbia
1994,4,5,5,5,4,4,5,5,4,5,4,2,2,2,2,1,2.38888888888889,0,3.33333333333333,3.22222222222222,44,5.05555555555556, ,4.54545454545455,1,1,1,3,1,1,2,3,1,7,5,1,2,1,1,3,8,1,1,4,6,7,5,5,3,2,7,5,5,5,7,7,2,7,7,3,4,10:06:54,1.8,2,2,2,4,4,4,4,4,4,2,2,2,2,7,5,7,6,6,4,16,2.66666666666667,3,4,4,4,4,3,2,3,2,2,1,4,3,3,4,4,5,2,3,1,4,1,1,1,4,2,1,1,1,3,1,1,2,3,3,1.84615384615385,2,2,2,1, ,4,4,5, ,3,1,5,5,1, ,2,8,1, , ,1,2,4,1, , , , , , , , , , ,3,3,3,1,3,3,2,7,3,2,4,3,3,4,1,2,4,4,5,3,3,3,3,3,3,3,4,3,3,3,4,4,2,3,3,1,3,3,4,3,4,3,2,2,2,2,4,3,3,4,2,4,3,1,1,5,2,1,4,3,4,4,2,3,1,5,3.53846153846154,3,4,4,3,4,3,3,5,3,3,5,5,3,3,37.2,37.2,1,37.2,1,12,6,1,-.725609890184909,1.28594071118949,Serbia
1996,5,4,2,5,5,4,4,2,3,5,5,4,1,1,1,1,4.72222222222222,0,4.66666666666667,3.77777777777778,63,2.13333333333333, ,4,1,7,1,2,7,8,7,7,8,3,4,5,3,4,2,8,1,7,1,1,1,2,1,2,1,2,5, ,1,1,1, ,1,6,6,1, ,10:03:56,1.6,2,0,2,5,4,5,4,5,5,4,5,5,5,7,6,6,6,6,5,13,7,3.09090909090909,5,5,1,5,4,2,1,2,1,3,5,3,4,2,4,5,5,2,5,4,1,1,3,3,4,3,2,3,4,1,4,2,4,4,2.92307692307692,2,2,2,1, ,4,2,1, ,3,2,8,7,1, ,2,7,1, , ,1,1, ,1, , , , , , , , , , ,7,7,7,7,7,7,7,6,3,1,4,4,2,5,5,4,5,5,4,3,4,2,2,1,3,4,4,4,4,4,4,4,4,5,4,1,1,1,5,3,3,5,4,1,3,4,3,1,4,3,5,4,2,1,5,4,5,5,5,2,5,5,2,4,1,5,4.30769230769231,4,5,5,5,4,5,3,5,4,4,4,5,3,5,36.5,36.6,2,36.55,1,1,6,1,1.25177599163667,-1.4147279476015,Serbia
1973,2,2,4,2,2,2,2,2,2,2,2,2,1,1,3,2,4.77777777777778,0,4.77777777777778,1.66666666666667,88,3.63636363636364, ,2.18181818181818,1,4,4,2,5,8,8,5,4,5,8,4,4,5,4,3,8,3,2,2, ,8,1,2,2,3, , , , ,3, ,2,6,7, ,4,11:16:45,1.8,2,0,1,5,5,5,5,5,5,3,5,5,4,6,6,3,3,2,2,24,5,2.18181818181818,3,3,2,3,1,1,1,1,2,4,3,1,2,1,2,1,1,3,1,3,2,2,3,3,2,2,2,3,3,3,2,2,3,3,2.53846153846154,2,2,4,1, ,2,2,5, ,4,3,6,5,1, ,1, ,3,1,8,4,1, ,1, , , , , , , , , , ,5,5,5,3,6,6,6,6,2,3,5,3,3,3,4,2,2,5,4,4,3,4,4,4,4,4,2,2,1,3,3,3,3,4,2,1,3,3,2,2,4,4,2,4,3,3,2,4,2,2,4,3,2,3,5,4,4,4,4,1,3,1,3,3,3,3,3,3,4,4,2,3,2,3,3,3,3,4,4,2,3,37,36.9,1,36.95,1,9,6,1,1.29885660787052,-.0256526056447086,Serbia
1995,5,5,2,4,5,5,5,5,4,5,4,1,1,1,2,1,3.41176470588235,0,2,2.22222222222222,44,4.83333333333333,4,4.45454545454545,1,2,3,8,2,4,2,2,2, ,2,4,2,3,2,5,2,5,8,5, ,7, ,2,4,5,5,5, ,4, , ,5,6,6,4, ,10:44:05,1.2,2,0,1,2,3,2,2,2,2,1,2,2,5,7,5,6,7,7,5,13,5.5,2.81818181818182,3,3,3,3,3,3,2,3,3,2,3,2,2,2,2,3,2,3,2,2,1,3,3,2,4,5,1,5,1,1,5,3,4,3,3.07692307692308,2,1,2,1, ,4,4,4,2,5,1,4,4,1, ,2,8,1, , ,1,1, ,1, , , , , , , , , , ,7,5,5,5,5,6,5,7,2,1,3,3,4,5,3,4,5,5,4,4,5,5,1,4,4,1,3,5,5,2,5,5,5,3,3,1,2,3,5,5,5,5,1,1,5,4,4,1,3,2,5,3,2,1,4,4,2,4,4,2,2,4,4,3,2,4,3.15384615384615,3,4,4,3,2,2,3,4,3,3,4,4,2,4,37,37.5,1,37.25,1,12,6,1,.14122733812063,1.08056666869588,Serbia
1993,2,2,2,4,1,1,4,1,2,1,1,1,2,2,2,4,2.55555555555556,0,3.77777777777778,4,70,2.33333333333333, ,1.90909090909091,1,2,2,2,2,7,2,2,2,1,2,2,1,6,6,1,2,1,3,6,1,6,3,2,1,1,2,2,1,2,2,1,1,2,4,3,2,10:31:34,2.2,2,3,5,4,3,4,3,4,5,3,4,4,3,3,2,1,1,1,2,19,5.66666666666667,3.72727272727273,3,5,5,4,4,4,2,4,2,4,4,5,5,2,5,4,5,2,3,5,1,1,1,4,2,2,1,4,2,2,4,2,4,4,2.53846153846154,1,2,2,1, ,2,2,5, ,8,1,8,8,1, ,2,8,1, , ,1,2,6,1, , , , , , , , , , ,5,6,6,6,6,5,7,7,3,1,1,4,4,4,2,4,3,4,4,2,4,4,2,1,4,4,2,4,3,4,4,4,2,2,2,2,2,2,4,2,4,3,2,1,2,4,2,2,2,4,2,5,2,2,2,5,2,2,2,4,4,2,5,2,1,1,2.69230769230769,2,2,5,2,4,2,2,2,1,4,1,2,4,4,35.6,36,2,35.8,1,27,5,1,-1.10284068062997,-.933517227021761,SMU
1993,2,2,1,2,1,2,2,4,4,2,1,1,4,1,4,2,4.16666666666667,0,3.55555555555556,4.11111111111111,70,3.33333333333333, ,2.09090909090909,1,6,6,6,3,3,3,3,6,5,5,3,5,5,2,7,3,3,1,3,2,5,5,3,3,2,5,5,3,2,5,2,3,3,3,3,3,10:22:38,2.4,2,1,5,4,4,5,5,4,2,2,4,2,3,3,1,1,2,1,1,13,5,3.27272727272727,5,2,5,4,4,2,2,2,1,4,5,4,5,4,4,4,4,4,4,4,2,2,2,4,2,2,1,1,2,2,2,2,5,2,2.23076923076923,1,2,2,1, ,4,4,5, ,3,2,4,4,2,1,2,8,1, , ,1,1, ,1, , , , , , , , , , ,4,6,6,6,4,4,4,7,2,1,4,4,4,4,4,5,5,4,2,1,2,1,4,4,4,4,4,4,2,2,2,2,4,4,2,2,4,5,5,4,2,2,1,1,2,1,2,2,2,2,4,1,2,2,2,4,2,2,2,4,2,2,2,2,1,4,1.76923076923077,2,2,1,2,2,2,2,2,2,1,1,2,2,2,36.2,36.4,2,36.3,1,26,5,1,.409765914681158,.179762135232027,SMU
1994,2,3,3,3,2,3,2,3,4,3,2,1,2,2,4,4,3.55555555555556,0,4,4,70,4.16666666666667,6,2.72727272727273,1,4,1,5,4,3,3,3,3,4,3,4,4,3,4,5,3,4,4,4,4,5,3,4,4,5,5,4,4,5,5,4,4,3,5,3,4,10:18:17,2.6,2,2,5,4,4,4,4,4,4,4,4,4,1,1,2,1,1,1,1,13,2.16666666666667,4,4,4,4,4,4,4,4,4,4,4,4,4,4,4,4,4,4,4,4,4,1,3,3,4,3,3,3,3,3,3,3,3,3,2,3,1,1,2,1, ,4,4,5, ,3,4,3,3,1, ,2,4,1, , ,1,1, ,1, , , , , , , , , , ,2,2,2,2,3,2,2,6,1,3,2,4,2,4,2,3,3,3,3,4,3,3,3,4,3,3,4,4,3,3,3,3,2,2,3,2,3,3,4,4,2,2,3,1,5,4,4,4,4,4,4,4,2,2,4,4,4,4,4,4,4,3,3,3,3,3,2.46153846153846,1,2,2,2,3,4,2,2,2,3,3,3,3,3,35.4,35.3,2,35.35,1,27,5,1,-.163981414574787,1.10749493711018,SMU
1990,2,4,2,4,2,2,2,4,2,2,1,1,2,2,3,2,2.27777777777778,0,4.22222222222222,3.33333333333333,70,2.72222222222222, ,2.45454545454545,1,2,3,1,2,1,2,1,1,6,2,6,2,1,1,3,2,3,2,5,1,3,3,3,3,3,3,2,3,2,2,2,3,3,4,2,2,10:14:50,2,2,1,5,5,5,5,5,5,4,1,4,4,3,2,2,1,2,1,1,13,2,1.27272727272727,4,1,1,1,1,1,1,1,1,1,1,4,4,2,4,4,2,2,4,4,1,5,3,2,5,4,2,2,2,3,3,5,4,3,3.30769230769231,1,2,1,1, ,4,4,4,1,1, ,5,2,1, ,2,3,2,1,3,1,1, ,1, , , , , , , , , , ,2,2,2,2,2,2,2,7,1,2,4,5,1,3,3,3,4,5,4,1,2,2,4,4,2,4,2,4,4,2,3,2,1,1,2,1,4,4,4,5,2,3,3,1,2,2,2,2,2,4,5,2,1,1,3,5,1,1,2,4,4,2,4,2,1,4,1.84615384615385,1,3,2,4,1,2,2,2,1,2,1,4,2,1,36.3,36.4,2,36.35,1,27,5,1,-1.36363492120085,-.500575252811955,SMU
1994,3,4,3,3,3,3,4,4,3,3,3,2,4,2,3,3,3.94444444444444,0,5,3.77777777777778,70,3.27777777777778, ,3.27272727272727,1,6,3,5,5,3,5,3,3,4,3,3,5,4,4,4,3,3,5,4,3,4,3,5,5,4,3,2,3,2,2,2,5,3,3,2,4,10:03:05,2.8,2,0,5,5,5,5,5,5,5,5,5,5,3,2,4,1,4,5,4,9,5.5,3.18181818181818,3,3,3,3,3,3,3,5,3,3,3,4,4,2,5,4,3,3,5,4,2,3,3,3,3,5,2,3,2,3,4,2,3,4,3.07692307692308,2,2,2,1, ,4,4,5, ,4,1,3,2,1, ,2,8,1, , ,1,1, ,1, , , , , , , , , , ,2,7,7,7,5,5,6,6,2,5,3,5,5,4,3,3,4,4,3,2,3,5,5,5,5,5,5,5,5,3,4,3,1,1,2,4,4,5,5,3,3,4,1,1,1,2,1,1,4,5,5,5,2,3,3,3,2,3,2,3,3,3,3,3,3,3,2.53846153846154,4,2,4,2,2,1,4,2,2,1,3,5,2,4,36.3,36.2,2,36.25,1,26,5,1,.20113052222445,.117913281773483,SMU
1996,3,2,3,4,4,2,3,4,2,4,2,4,3,3,3,2,4.77777777777778,1,4.22222222222222,3.44444444444444,71,2.72222222222222, ,3,1,7,6,6,7,5,5,5,7,6,1,1,6,4,4,3,5,5,3,5,2,3,2,2,2,2,4,4,3,2,3,4,2,2,3,2,2,9:34:18,3,2,0,5,4,5,4,4,5,4,3,4,5,4,4,3,1,1,3,4,13,4.16666666666667,3.27272727272727,2,3,4,4,3,2,4,3,4,4,3,3,4,3,2,4,4,3,4,4,2,3,4,3,3,4,2,3,3,4,4,4,5,4,3.53846153846154,1,2,2,1, ,4,3,5, ,4,2,2,2,2,1,2,8,1, , ,4,1, ,1, , , , , , , , , , ,5,5,4,3,4,4,3,7,2,4,2,4,4,4,3,4,3,4,2,3,2,5,4,3,3,4,2,4,5,2,4,5,2,1,3,3,3,4,4,4,3,3,2,3,5,3,4,2,3,4,3,4,3,3,4,2,3,4,2,3,3,3,4,2,3,4,2.53846153846154,3,2,2,2,2,2,2,2,4,2,5,4,3,2,34.8,35.2,2,35,1,26,5,1,.983513243937102,-.500575252811955,SMU
1995,2,2,2,2,2,2,2,2,4,2,2,2,2,2,4,2,2,0,5,3.77777777777778,70,2.44444444444444, ,2.18181818181818,1,2,2,2,2,2,2,2,2,2,2,2,2,2,2,2,2,2,2,2,6,6,2,2,2,2,2,2,2,2,2,2,2,2,2,2,2,9:30:31,2.4,2,0,5,5,5,5,5,5,5,5,5,5,4,5,4,3,3,4,3,12,4.5,3.09090909090909,4,4,4,4,4,2,2,2,2,2,4,4,4,3,4,4,4,4,4,3,1,2,5,5,4,5,5,5,3,2,5,5,5,4,4.23076923076923,2,2,2,1, ,4,4,5, ,2,2,5,4,1, ,2,8,1, , ,1,1, ,1, , , , , , , , , , ,3,5,5,5,5,4,4,6,2,2,2,4,2,2,4,4,4,4,4,2,4,4,4,4,4,4,4,4,4,3,4,3,2,3,2,1,4,4,4,4,2,2,2,2,3,4,2,2,4,4,2,4,4,2,4,4,4,4,4,2,4,4,4,4,4,4,2.23076923076923,2,2,3,2,2,2,2,3,2,2,2,4,2,3,35.7,36,2,35.85,1,27,5,1,-1.62442916177174,-.809819520104674,SMU
1995,3,4,3,4,3,3,4,3,4,3,3,2,3,2,3,3,4.16666666666667,0,4.22222222222222,3.66666666666667,79,3.83333333333333, ,3.36363636363636,1,4,5,5,5,4,4,4,5,4,4,4,4,3,3,4,4,5,4,4,4,4,4,4,4,5,3,4,4,4,4,3,3,3,4,4,4,11:19:43,2.6,2,1,4,5,4,4,4,4,4,4,4,5,2,2,4,3,3,3,3,34,4.83333333333333,3.36363636363636,3,5,4,4,3,3,3,3,3,3,3,4,4,3,4,4,3,3,3,5,1,2,3,5,5,1,2,1,2,4,2,4,4,2,2.84615384615385,2,2,1,3,3,4,4,4,4,3,3,5,5,1, ,2,8,3,3,6,3,2,2,1, , , , , , , , , , ,7,5,5,4,4,4,5,10,3,4,3,4,4,4,4,4,4,4,4,3,4,4,4,3,4,3,3,3,3,4,3,3,3,3,3,4,4,4,4,4,3,2,3,3,3,4,3,2,4,3,4,3,3,3,3,4,3,3,3,3,4,4,3,3,2,4,3.46153846153846,5,4,4,2,1,3,3,5,3,4,5,5,3,3,36.7,36.7,2,36.7,1,26,5,1,.409765914681158,.736401816358921,SMU
1995,3,4,2,4,2,2,2,2,2,4,2,2,2,2,4,4,4.16666666666667,5,4.66666666666667,3.66666666666667,71,2.94444444444444, ,2.63636363636364,1,6,2,6,2,6,5,6,6,5,2,2,6,3,2,2,6,6,2,5,2,2,2,2,2,6,3,3,3,2,6,2,2,2,2,2,5,11:10:27,2.8,2,0,4,5,5,5,5,5,5,4,4,4,1,2,5,3,2,2,2,19,4.66666666666667,2.72727272727273,3,2,2,3,2,3,4,3,2,4,2,4,5,2,4,4,2,5,3,4,2,2,4,3,2,4,2,3,2,2,3,4,3,2,2.76923076923077,2,2,2,1, ,4,1,5, ,5,4,5,5,1, ,2,8,1, , ,1,1, ,2,International Connection, , , , ,10, , , , ,4,4,5,5,5,5,5,6,3,2,4,4,2,3,2,2,3,4,2,1,2,2,4,3,3,2,2,4,4,3,3,3,3,3,3,1,4,4,4,4,3,3,2,2,2,4,2,4,4,4,4,4,2,3,3,4,2,2,2,2,3,2,3,3,2,2,3.46153846153846,5,4,4,3,3,3,3,4,2,4,4,4,2,4,36.1,36.4,2,36.25,1,26,5,1,.409765914681158,-.25317983897778,SMU
1992,2,5,1,4,2,4,2,4,4,2,4,1,4,1,3,1,5.83333333333333,0,1.55555555555556,4.33333333333333,79,4.44444444444444, ,3.09090909090909,1,6,7,7,7,7,7,5,6,7,1,1,7,6,7,7,6,7,4,7,6,7,2,7,6,6,2,2,6,1,6,2,6,2,6,1,5,11:05:43,2,2,0,4,2,1,4,1,1,1,2,1,1,1,2,2,1,1,1,1,22,6.33333333333333,4.36363636363636,2,5,5,5,4,5,5,5,5,2,5,4,4,5,4,4,5,4,4,5,1,2,1,1,2,2,1,1,2,2,4,2,5,2,2.07692307692308,1,2,2,1, ,4,4,5, ,2,2,4,1,1, ,2,8,1, , ,1,2,4,2,Peer Helpers,Recreation Gaming Club, , , ,6,3, , , ,6,7,7,7,6,5,5,7,2,2,2,5,1,2,4,4,2,5,5,5,4,5,1,4,5,5,5,5,1,5,5,5,2,4,2,1,4,4,2,5,3,2,2,2,4,4,5,5,5,5,2,4,1,1,2,5,2,5,5,5,5,4,4,4,5,4,2.84615384615385,4,5,3,2,1,2,2,4,2,1,5,5,1,5,36.6,36.4,2,36.5,1,26,5,1,1.97453135810646,1.4167392044029,SMU
1995,2,2,2,2,2,2,2,2,3,2,2,2,2,2,3,2,3.77777777777778,0,4,2.77777777777778,79,3.11111111111111, ,2.09090909090909,1,6,3,4,5,5,5,4,3,3,2,3,4,5,2,3,6,3,2,3,3,4,3,4,3,3,3,4,3,2,4,3,3,2,3,3,3,11:04:21,2.2,2,0,4,4,4,4,4,4,4,4,4,4,3,4,5,1,4,1,3,23,4.66666666666667,2.81818181818182,3,2,4,3,3,2,3,2,3,2,4,2,4,2,4,4,2,3,2,2,2,4,5,4,5,4,4,4,4,4,4,4,4,4,4.15384615384615,2,2,2,1, ,4,4,5, ,8,6,6,4,2,1,2,7,1, , ,1,1, ,2,VUCA Project Group,Business Law Project Group, , , ,5,1, , , ,5,5,5,5,3,5,5,7,2,2,4,4,4,3,3,4,4,4,3,2,2,4,4,4,4,3,4,4,4,4,4,4,2,2,3,2,3,4,4,3,4,4,2,3,4,4,2,2,4,3,3,4,4,2,4,4,4,4,4,2,4,5,4,2,2,4,2.61538461538462,3,3,4,2,2,2,3,3,2,2,3,4,2,3,36.7,36.7,2,36.7,1,26,5,1,.0446539778819199,-.0676332786021485,SMU
 ,4,4,1,4,4,3,4,4,1,4,3,1,3,2,4,4,2.33333333333333,0,4.77777777777778,4.22222222222222,70,3.16666666666667, ,3.27272727272727, ,1,2,1,2,6,5,1,2,2,1,2,2,1,2,1,7,3,1,5,3,6,3,3,4,3,2,2,2,2,3,3,2,4,4,3,3,11:02:40,2.8, ,0,4,4,5,4,5,5,5,5,5,5,4,7,7,2,3,2,4,12,5.5,4.27272727272727,5,5,5,5,3,3,4,3,5,4,5,5,5,4,5,3,3,5,4,4, ,2,3,3,2,2,1,3,2,3,4,2,3,3,2.53846153846154, ,2,2,1, ,4,4,5, ,3,2,4,3,2,1,2,5,1, , ,1,1, ,1, , , , , , , , , , ,4,6,6,6,6,5,5,7,2,1,2,3,3,3,2,3,2,4,3,1,2,3,4,5,4,3,3,4,4,4,4,3,1,1,2,2,4,5,3,4,4,4,1,2,3,4,3,3,4,3,4,5,3,2,4,3,3,4,4,3,5,3,4,3,2,3,3.07692307692308,4,3,4,2,3,3,3,3,2,3,4,4,3,3,36.7,36.8, ,36.75,1,26,5,1,-1.31147607308668,-.00578442514360494,SMU
1995,2,3,2,2,2,3,4,3,2,2,2,4,4,2,4,2,3.55555555555556,0,5,3.33333333333333,71,3.61111111111111, ,2.45454545454545,1,4,2,4,5,5,3,4,5,6,3,2,2,4,2,2,5,4,2,3,5,4,4,4,4,4,3,3,3,4,4,2,4,4,4,3,3,11:00:15,3.2,2,0,4,5,5,5,5,5,5,5,5,5,3,4,5,4,4,2,2,18,3.33333333333333,2.81818181818182,4,3,4,3,4,2,2,2,2,2,3,3,3,3,3,3,3,4,4,4,2,4,3,5,5,1,3,4,5,4,4,5,2,4,3.76923076923077,2,2,2,1, ,4,4,5, ,1, ,4,4,2,8,2,8,1, , ,1,1, ,1, , , , , , , , , , ,2,4,4,4,3,3,3,6,3,2,3,4,4,2,2,2,4,4,4,1,2,3,4,3,3,2,2,3,5,3,3,4,3,2,3,3,3,4,4,4,4,2,1,1,2,3,2,2,4,3,3,4,3,2,4,3,4,3,3,2,3,4,3,3,2,3,2.38461538461538,2,3,3,3,2,2,2,2,2,3,2,3,2,3,36.5,36.6,2,36.55,1,26,5,1,-.163981414574787,.489006402524745,SMU
1992,2,2,1,2,2,2,2,2,2,2,1,2,1,2,3,1,2.27777777777778,0,4.77777777777778,3.22222222222222,75,4.27777777777778,3,1.81818181818182,1,2,2,2,2,4,2,2,2,2,2,1,2,2,2,4,2,2,4,5,4,6,2,5,6,6,2,2,6,3,6,2,2,6,6,5,3,10:59:47,1.8,2,0,4,5,4,5,5,5,5,4,5,5,4,5,7,5,5,2,5,12,4.66666666666667,2,2,2,2,2,2,2,2,2,2,2,2,3,5,1,4,2,5,2,4,3,1,2,2,3,1,2,2,1,2,3,3,2,4,2,2.23076923076923,2,1,2,1, ,4,4,5, ,3,1,7,4,1, ,2,8,1, , ,2,1, ,1, , , , , , , , , , ,3,5,5,5,6,4,4,6,2,2,4,4,2,4,2,2,4,5,4,2,2,2,5,4,3,3,3,4,3,3,4,3,3,4,4,1,4,5,5,4,1,2,2,1,4,2,3,2,4,2,5,2,2,2,3,4,3,2,3,3,5,4,3,3,1,2,2.84615384615385,3,3,4,3,2,1,3,3,3,3,3,4,3,3,36.3888888888889,36.7222222222222,4,36.5555555555556,1,26,5,1,-1.36363492120085,1.23119264402727,SMU
1995,2,2,2,2,2,2,2,2,2,2,2,2,2,2,3,2,2.38888888888889,0,3.88888888888889,2.77777777777778,71,2.22222222222222, ,2,1,2,2,2,2,4,3,2,2,2,2,2,2,2,2,2,4,4,2,2,2,3,2,2,2,2,2,2,2,3,2,2,2,3,3,2,2,10:59:19,2.2,2,4,4,4,4,4,4,5,4,2,4,4,3,4,4,2,2,2,3,20,4.83333333333333,3.36363636363636,4,4,4,4,4,2,2,3,3,3,4,3,4,3,4,2,2,3,2,2,1,3,3,4,4,4,3,3,4,4,3,4,4,4,3.61538461538462,2,2,2,1, ,4,4,5, ,7,3,8,7,1, ,2,5,1, , ,5,1, ,1, , , , , , , , , , ,4,5,5,5,5,5,5,6,4,4,2,4,3,4,3,3,3,4,2,2,3,4,3,2,4,3,3,4,4,4,4,4,1,1,2,2,3,2,2,4,2,3,3,3,4,4,3,2,4,3,3,4,3,2,4,4,4,4,4,2,3,3,3,3,3,2,2.30769230769231,2,3,2,3,3,2,2,2,2,2,3,4,2,2,36.2,36.2,2,36.2,1,26,5,1,-1.2593172249725,-1.05721493393885,SMU
1994,3,2,2,3,3,2,4,4,2,2,4,2,3,2,2,3,3.27777777777778,0,4.88888888888889,1.55555555555556,70,2.55555555555556, ,2.81818181818182,1,5,2,2,5,2,2,2,4,3,4,2,2,6,2,6,6,2,2,2,3,3,2,3,2,2,2,2,2,2,5,2,3,2,2,2,5,10:56:08,2.4,2,0,4,5,5,5,5,5,5,4,5,5,4,5,3,2,2,1,3,14,5,2.27272727272727,4,2,4,4,2,1,1,1,2,2,2,2,2,1,4,1,1,1,1,1,2,2,5,4,2,2,4,4,3,4,4,3,2,3,3.23076923076923,1,2,2,1, ,4,4,5, ,1, ,8,7,2,1,2,8,1, , ,1,1, ,1, , , , , , , , , , ,5,5,5,5,5,5,5,6,3,2,4,5,5,3,3,3,3,4,3,2,3,3,4,4,3,3,3,4,4,4,4,4,2,2,3,2,4,4,4,4,1,4,3,3,3,4,2,2,3,4,3,2,2,3,3,3,3,3,3,4,4,3,3,3,2,3,2.69230769230769,3,4,3,2,2,2,2,3,2,3,4,5,2,3,36.5,36.7,2,36.6,1,26,5,1,-.424775655145671,-.686121813187586,SMU
1993,2,2,1,3,1,2,2,2,2,2,2,3,3,3,2,3,4.16666666666667,0,4.88888888888889,1.77777777777778,70,3.5, ,1.90909090909091,1,6,4,3,5,4,4,3,4,4,3,4,3,6,5,5,4,3,5,4,3,6,2,3,5,2,5,4,3,4,3,3,4,3,4,2,3,10:55:06,2.8,2,1,4,5,4,5,5,5,5,5,5,5,3,3,3,1,1,1,2,14,3.5,2,2,2,2,2,2,2,2,2,2,2,2,1,2,2,2,2,2,2,2,1,1,3,2,5,3,4,4,3,2,4,4,3,4,3,3.38461538461538,1,2,2,1, ,4,4,4,1,1, ,6,6,2,1,2,6,1, , ,1,1, ,1, , , , , , , , , , ,2,5,5,5,2,2,3,7,3,4,4,4,3,2,4,3,3,5,4,4,3,3,5,3,4,4,3,4,3,3,3,3,3,3,3,2,3,3,2,4,2,2,3,3,3,3,3,3,3,3,3,3,3,3,3,3,3,3,3,3,3,2,2,2,2,2,3,3,3,3,3,3,3,3,3,3,3,3,3,3,3,36.7,36.7,2,36.7,1,26,5,1,.409765914681158,.365308695607658,SMU
1995,4,3,2,3,2,2,2,2,3,3,3,3,3,2,4,2,3,0,4.33333333333333,3.55555555555556,79,2, ,2.63636363636364,2,2,2,1,5,3,4,2,2,3,4,2,2,2,5,2,5,6,2,2,2,5,2,2,2,3,2,2,1,1,1,2,2,2,2,1,2,10:48:38,2.8,2,3,4,5,4,4,4,4,5,5,4,4,5,8,7,6,6,6,6,26,5.83333333333333,3.27272727272727,4,3,5,4,2,2,4,2,3,3,4,4,2,2,4,4,4,4,4,4,1,2,3,3,2,3,1,2,2,3,5,2,2,2,2.46153846153846,2,2,2,1, ,4,4,5, ,8,6,8,6,2,1,2,8,1, , ,4,2,4,1, , , , , , , , , , ,5,6,6,5,7,6,6,8,3,3,5,4,4,2,4,4,5,4,2,2,4,4,3,3,3,5,5,5,4,4,4,4,2,2,2,2,3,5,5,4,2,2,2,2,2,3,4,2,3,3,4,5,4,4,4,5,4,5,4,3,4,4,4,3,3,4,2.84615384615385,4,3,4,1,2,2,3,4,3,2,3,4,2,4,36.6,36.8,2,36.7,1,26,5,1,-.685569895716555,-1.30461034777302,SMU
1994,3,3,2,2,2,3,3,2,2,2,2,2,4,2,3,2,1.72222222222222,0,4.88888888888889,3.77777777777778,70,1.72222222222222, ,2.36363636363636,1,2,1,1,1,1,2,2,2,1,5,1,1,1,2,2,1,1,4,1,1,7,2,1,1,2,2,2,1,1,1,1,2,1,2,2,1,10:47:05,2.6,2,0,4,4,5,5,5,5,5,5,5,5,4,6,5,6,5,6,5,30,5.66666666666667,3.36363636363636,4,4,3,4,4,1,3,4,2,4,4,4,4,3,4,4,3,4,4,4,1,2,2,4,4,3,1,3,2,2,3,2,3,2,2.53846153846154,2,2,2,1, ,4,4,5, ,5,2,2,8,2,5,2,8,1, , ,3,1, ,2,Women Soccer Club, , , , ,7, , , , ,4,7,6,6,5,6,5,7,4,2,4,4,2,2,4,4,2,4,3,2,2,2,4,5,2,4,1,4,4,1,4,4,1,1,2,2,4,4,3,4,3,2,2,2,3,4,2,2,4,3,2,4,3,4,4,4,4,3,2,2,3,2,2,3,1,4,3.23076923076923,5,4,5,2,2,2,2,3,2,3,4,4,3,5,36.6,36.3,2,36.45,1,26,5,1,-1.88522340234262,-1.61385461506574,SMU
1995,2,2,1,2,1,2,5,2,2,2,1,2,2,2,4,1,4.05555555555556,0,4.66666666666667,3.22222222222222,70,3.66666666666667, ,2,1,6,3,6,3,4,6,3,6,3,3,3,5,3,3,5,3,6,2,5,2,3,5,7,3,3,6,5,2,2,2,5,2,3,3,6,2,10:44:42,2.2,2,0,4,5,4,5,5,5,5,3,5,5,5,6,6,5,5,6,4,29,5.33333333333333,2.81818181818182,3,4,4,4,2,2,2,2,2,2,4,2,5,3,5,2,4,4,2,2,2,4,3,2,4,4,3,4,3,1,2,3,2,3,2.92307692307692,2,2,2,1, ,4,4,5, ,2,2,6,5,2,8,2,8,1, , ,1,2,3,2,Sports Club, , , , ,5, , , , ,6,5,6,5,5,5,5,8,4,2,4,4,4,2,4,4,4,4,4,1,2,5,4,5,5,4,3,5,4,4,5,1,2,4,2,3,5,4,3,2,1,3,4,4,5,2,4,2,3,2,5,2,4,2,3,4,2,3,3,3,4,4,5,4,1,3,4,5,3,5,4,5,3,5,5,2,5,3,5,2,5,36.8,36.5,2,36.65,1,27,5,1,.305448218452804,.550855255983289,SMU
1993,4,4,4,2,4,4,4,3,3,4,3,2,3,3,4,3,4.05555555555556,1,4,3.33333333333333,71,4.05555555555556, ,3.54545454545455,1,5,3,5,4,4,4,5,3,4,4,4,5,3,4,3,4,4,5,6,3,4,5,4,4,5,3,3,2,4,4,5,5,3,5,5,3,10:41:47,3,2,0,4,4,4,4,4,4,4,4,4,4,3,2,4,2,3,2,3,13,3.5,3.54545454545455,3,4,4,3,4,3,3,4,4,4,3,4,4,4,2,4,3,3,3,3,1,3,2,3,2,4,2,3,3,3,4,2,2,3,2.76923076923077,1,2,2,1, ,4,4,4,2,2,1,4,4,1, ,2,4,1, , ,1,1, ,1, , , , , , , , , , ,2,3,4,4,3,5,5,7,1,4,3,4,4,3,4,4,4,3,4,3,4,4,3,4,3,3,3,4,4,4,3,4,4,3,3,4,4,3,4,4,4,4,4,3,4,4,4,3,3,4,4,4,4,4,3,4,3,4,4,4,4,3,4,4,4,4,2.84615384615385,3,3,4,3,2,2,2,4,2,2,4,3,2,4,36.1,36.1,2,36.1,1,26,5,1,.305448218452804,.983797230193095,SMU
1994,2,2,3,2,2,2,2,4,2,2,3,2,2,2,2,3,2.16666666666667,0,4.33333333333333,3.33333333333333,71,1.83333333333333,3,2.36363636363636,1,3,2,2,3,3,2,2,2,2,2,2,2,2,2,2,2,2,2,2,1,2,2,2,2,2,2,2,1,2,1,2,2,2,2,2,2,10:39:31,2.2,2,0,4,4,4,4,4,5,4,4,5,5,3,4,5,2,2,4,4,18,3.66666666666667,3.18181818181818,4,4,4,4,4,2,2,2,2,3,4,4,3,2,4,4,2,4,3,4,1,3,2,4,3,3,1,2,2,1,4,2,4,3,2.61538461538462,2,1,2,1, ,4,4,5, ,8,6,6,6,1, ,2,8,1, , ,1,1, ,1, , , , , , , , , , ,3,4,4,3,4,4,4,6,3,2,4,5,3,3,2,2,2,4,3,2,2,3,2,3,4,4,3,5,4,3,4,4,1,2,1,1,2,4,4,3,3,3,2,3,3,4,2,3,3,3,4,4,2,2,4,2,2,2,4,2,4,2,3,3,2,3,2.23076923076923,3,3,3,2,2,1,3,3,2,2,2,5,1,2,36.8333333333333,37.0555555555556,2,36.9444444444444,1,26,5,1,-1.46795261742921,-1.49015690814866,SMU
1994,2,2,2,4,3,2,4,4,2,3,2,3,3,2,3,3,4.5,0,4,4,71,2.5, ,2.72727272727273,1,6,6,5,3,5,5,5,5,5,5,2,3,7,6,3,3,4,3,2,2,4,2,3,3,3,2,2,2,1,5,2,3,2,2,2,3,10:35:56,2.8,2,1,4,4,4,4,4,4,4,4,4,4,5,7,5,7,7,7,7,16,5.16666666666667,2.63636363636364,4,4,2,2,3,2,2,4,2,2,2,4,4,4,4,4,4,4,4,4,1,4,2,4,2,4,2,2,2,2,4,2,3,2,2.69230769230769,2,2,2,1, ,4,4,4,4,3,3,3,3,1, ,2,5,1, , ,1,1, ,1, , , , , , , , , , ,6,5,5,5,5,5,5,7,2,4,4,4,2,2,4,4,4,4,4,2,2,2,4,4,3,4,2,4,3,4,4,4,2,2,3,2,4,4,4,4,4,4,2,3,4,3,2,2,2,4,4,4,4,4,3,4,4,4,4,2,4,4,4,4,4,4,3,3,3,4,3,3,3,2,3,3,3,3,3,3,3,35.9,35.9,2,35.9,1,26,5,1,.722719003366218,-.74797066664613,SMU
1993,4,4,4,4,4,3,3,3,4,3,1,2,4,3,2,3,3.16666666666667,0,3.66666666666667,3.44444444444444,71,3.55555555555556, ,3.36363636363636,1,4,4,4,3,3,3,2,4,3,3,2,4,3,5,3,3,1,3,4,4,2,4,2,4,4,3,6,3,3,3,3,3,4,3,5,4,10:35:49,2.8,2,0,4,4,3,4,4,3,3,4,4,4,2,2,4,2,2,2,3,21,3.66666666666667,2.90909090909091,3,2,4,3,3,3,3,3,3,3,2,3,4,4,3,3,2,4,4,4,1,4,3,3,4,4,4,3,2,3,4,3,2,4,3.30769230769231,1,2,2,1, ,4,4,5, ,2,6,8,5,1, ,2,8,1, , ,5,1, ,1, , , , , , , , , , ,2,5,4,5,3,3,3,6,4,4,3,4,3,3,3,4,4,4,4,3,4,4,3,4,4,3,5,4,5,3,4,4,5,4,4,4,4,3,3,3,4,4,4,4,5,2,3,2,4,2,2,4,4,4,4,4,4,3,4,4,4,2,4,3,4,4,2.46153846153846,3,2,2,2,2,3,3,2,2,3,2,4,3,3,36.2,36.1,2,36.15,1,26,5,1,-.529093351374025,.427157549066201,SMU
1995,2,4,1,4,4,1,2,3,2,2,3,2,2,2,3,2,2.22222222222222,0,5,3,70,2.22222222222222, ,2.54545454545455,1,2,2,2,3,2,2,2,2,2,2,2,2,2,2,2,2,5,2,3,2,2,1,2,3,5,2,2,1,2,2,2,4,2,2,2,1,10:35:32,2.2,2,0,4,5,5,5,5,5,5,5,5,5,5,6,6,3,3,4,4,25,6,2.90909090909091,4,4,4,1,3,2,2,4,2,2,4,2,4,2,4,3,4,2,3,3,1,2,5,3,4,4,4,4,4,3,4,3,4,3,3.61538461538462,2,2,2,1, ,4,4,5, ,5,4,8,4,2,4,2,8,1, , ,1,2,1,2,Accounting Society, , , , ,6, , , , ,6,6,6,6,6,6,6,8,2,2,5,5,3,2,4,2,2,5,5,3,4,4,5,3,4,4,4,4,4,3,4,4,3,2,2,1,5,5,3,5,2,2,2,2,2,4,2,2,4,2,4,4,2,4,4,4,3,3,5,2,5,4,3,1,2,5,3.15384615384615,3,4,5,3,2,3,1,5,3,3,3,5,2,4,36.5,36.5,2,36.5,1,27,5,1,-1.41579376931503,-1.05721493393885,SMU
1995,3,4,2,3,1,4,4,5,3,3,2,2,4,2,3,3,4.11111111111111,0,4.33333333333333,3.11111111111111,70,3.72222222222222, ,3.09090909090909,1,4,4,4,4,6,5,4,4,3,5,2,4,4,2,6,5,5,3,6,3,6,3,5,5,5,3,3,3,3,3,3,4,3,3,3,3,10:33:57,2.8,2,2,4,5,4,4,5,5,4,4,4,4,5,5,4,2,2,2,3,11,4.33333333333333,3.18181818181818,4,3,4,2,4,2,4,3,3,2,4,4,4,1,4,4,4,3,2,2,2,1,2,4,3,3,1,2,1,3,4,2,2,2,2.30769230769231,2,2,2,1, ,4,4,5, ,1, ,5,5,1, ,2,8,1, , ,1,1, ,1, , , , , , , , , , ,4,5,3,4,5,5,5,5,3,3,4,5,2,3,4,4,3,5,4,2,3,4,4,4,4,4,4,4,4,4,3,3,3,4,3,2,5,5,5,4,4,3,2,2,4,4,4,3,3,4,4,4,2,2,3,4,2,2,4,4,4,3,4,3,2,4,2.76923076923077,4,3,3,2,3,2,2,3,2,3,2,4,4,3,36.1,36.4,2,36.25,1,26,5,1,.35760706656698,.612704109441833,SMU
1993,3,3,3,2,3,3,3,3,3,3,3,2,4,2,4,2,3.72222222222222,0,4,3.88888888888889,79,3.11111111111111, ,2.90909090909091,1,4,6,2,5,2,3,3,5,2,2,4,4,6,4,4,4,5,2,2,2,5,3,4,3,4,2,3,2,3,3,2,4,4,5,3,2,10:30:40,2.8,2,1,4,4,4,4,4,4,4,4,4,4,5,6,6,3,5,3,6,12,4.5,3.18181818181818,4,4,4,4,3,2,2,3,3,2,4,4,4,4,4,4,4,4,4,3,1,3,3,3,3,4,2,3,3,3,4,2,3,4,3.07692307692308,2,2,2,1, ,4,4,5, ,1, ,6,4,1, ,2,8,1, , ,3,1, ,1, , , , , , , , , , ,2,5,5,5,5,5,5,5,2,2,4,4,2,3,4,4,4,5,4,3,3,4,4,4,4,4,4,4,4,3,4,3,2,2,3,2,5,4,4,4,2,4,4,3,4,4,3,3,4,4,4,4,4,2,4,4,4,4,4,3,4,4,4,2,3,4,2.69230769230769,3,3,3,2,2,2,3,3,2,3,3,3,3,3,36.2,36,2,36.1,1,26,5,1,-.00750487023225672,-.0676332786021485,SMU
1992,3,3,3,2,3,3,3,2,3,3,2,2,4,3,3,2,4.27777777777778,0,4.22222222222222,3.55555555555556,75,2.44444444444444, ,2.72727272727273,1,7,3,2,5,5,5,4,5,4,6,3,2,5,4,4,5,4,4,4,2,2,2,3,2,2,2,1,3,2,2,1,4,3,3,1,5,10:29:30,2.8,2,3,4,4,4,4,4,5,5,3,5,4,3,6,6,3,2,2,5,15,5.33333333333333,3.81818181818182,4,4,4,4,4,4,4,3,3,4,4,3,5,3,3,4,3,5,4,2,1,2,4,3,1,3,2,3,2,3,4,3,3,3,2.76923076923077,1,2,2,1, ,4,4,5, ,1, ,8,3,2,1,2,8,3,1,4,1,1, ,1, , , , , , , , , , ,6,6,5,5,5,5,5,7,2,3,3,3,3,3,3,3,3,4,3,1,2,2,4,3,4,4,4,4,3,3,3,3,3,3,3,3,4,4,4,4,2,2,3,3,3,3,3,3,3,3,3,3,3,1,3,4,4,3,4,2,3,3,3,3,3,4,2.76923076923077,3,2,4,3,3,2,3,3,2,2,3,3,3,3,36.4,36.3,2,36.35,1,26,5,1,.514083610909511,-.809819520104674,SMU
1995,4,5,3,5,2,3,4,5,4,4,3,2,3,3,4,3,4.44444444444444,0,4,3.55555555555556,70,2.38888888888889, ,3.81818181818182,1,5,5,5,6,6,4,2,4,4,5,4,5,2,2,4,6,6,5,4,3,2,2,4,2,2,2,2,2,2,2,3,2,2,2,2,3,10:29:02,3,2,0,4,4,4,4,4,4,4,4,4,4,2,2,5,3,3,3,3,24,4.5,2.36363636363636,2,4,2,2,2,2,2,2,2,4,2,3,4,2,5,4,2,3,5,4,1,2,2,4,2,4,1,2,2,3,3,3,4,2,2.61538461538462,2,2,2,1, ,4,4,5, ,8,3,5,4,2,8,2,8,1, , ,4,1, ,1, , , , , , , , , , ,3,5,5,5,5,4,5,7,3,4,3,5,2,2,3,4,2,5,5,2,3,3,3,2,4,5,3,5,3,4,4,3,1,1,1,1,4,5,2,4,2,1,2,2,4,3,4,2,4,2,4,4,4,3,4,3,4,4,3,2,3,3,3,3,2,5,3.07692307692308,3,3,4,3,3,3,3,3,3,3,3,3,3,3,36.2,36.6,2,36.4,1,27,5,1,.670560155252041,-.871668373563217,SMU
1992,2,2,1,3,1,2,3,2,3,1,2,1,2,2,5,1,4.61111111111111,0,4.11111111111111,2.22222222222222,71,3.94444444444444, ,2,2,6,6,6,6,6,5,3,5,6,4,2,4,2,5,6,6,2,3,5,4,4,3,5,3,3,3,6,3,4,5,4,5,3,3,3,5,10:28:22,2.2,2,1,4,5,4,4,4,4,4,4,4,4,3,3,2,2,2,2,2,22,4.66666666666667,3,4,2,4,4,3,2,3,3,3,3,2,2,4,1,4,1,1,1,2,4,2,2,4,4,2,4,2,2,4,4,5,2,4,3,3.23076923076923,1,2,2,1, ,4,4,5, ,3,3,4,3,1, ,2,8,2,1,4,1,2,5,1, , , , , , , , , , ,5,2,6,5,5,5,4,8,3,4,2,5,3,2,4,5,3,4,2,4,4,3,4,3,4,4,2,4,3,3,3,3,2,2,3,2,4,5,2,4,2,5,3,3,5,2,4,2,4,3,4,2,5,4,3,4,4,4,3,4,4,3,2,4,3,4,2,3,2,3,1,2,1,1,3,2,2,2,5,1,3,36.3,36.6,2,36.45,1,26,5,1,.827036699594571,.860099523276008,SMU
1993,3,3,3,3,3,3,3,3,3,3,3,3,3,3,3,3,4.33333333333333,0,4,2.66666666666667,79,3.88888888888889, ,3,1,4,5,4,5,4,5,4,5,5,4,6,4,5,4,4,4,4,2,4,4,4,4,4,4,4,4,4,4,4,5,4,4,3,3,3,4,10:23:40,3,2,0,4,4,4,4,4,4,4,4,4,4,3,3,4,3,3,2,3,43,3,2.63636363636364,4,3,4,3,3,3,1,2,1,2,3,3,3,4,2,2,2,3,3,2,2,3,4,5,3,4,3,1,4,4,2,4,4,2,3.30769230769231,1,2,2,1, ,4,4,5, ,2,2,4,4,2,8,2,8,1, , ,5,2,3,2,Church group,school project group,Secondry school friends group, , ,7,6,3, , ,3,3,3,3,3,3,3,8,4,2,4,3,4,4,2,3,3,2,2,2,3,4,4,2,4,4,2,3,3,3,4,3,2,2,3,3,2,2,4,3,4,3,3,2,3,2,3,3,3,2,3,2,3,2,4,4,4,3,3,3,2,2,4,3,4,3,3,3,3,3,3,3,3,3,3,3,3,3,3,3,3,36.4,36.3,2,36.35,1,26,5,1,.566242459023687,.798250669817464,SMU
1993,2,3,2,2,2,3,2,2,3,2,4,2,4,1,3,2,2.61111111111111,3,4.22222222222222,3.33333333333333,70,1.72222222222222, ,2.45454545454545,2,2,3,2,2,7,2,2,3,2,2,2,2,2,6,2,2,3,1,2,1,2,1,2,2,3,1,2,1,2,1,1,2,2,2,2,2,10:23:33,2.4,2,2,4,4,4,5,4,4,5,4,4,4,3,4,3,2,2,2,2,19,4.33333333333333,2.36363636363636,4,3,2,2,2,2,2,2,2,3,2,3,4,2,4,4,2,5,2,4,1,3,4,4,2,3,2,3,2,4,3,2,3,4,3,1,2,2,1, ,4,4,2,2,3,2,7,7,2,1,2,8,1, , ,2,1, ,1, , , , , , , , , , ,4,5,5,5,4,3,4,8,3,2,2,4,4,4,4,4,2,5,3,1,4,4,2,2,5,4,4,4,2,4,4,2,1,2,1,1,4,5,4,4,2,4,3,1,4,4,1,2,4,4,4,4,4,2,4,4,3,4,4,2,3,4,4,4,2,1,2.30769230769231,2,3,3,2,2,2,2,2,2,2,4,5,3,1,36.2,36.3,2,36.25,1,27,5,1,-1.05068183251579,-1.61385461506574,SMU
1993,1,1,1,1,1,1,1,1,1,1,1,3,3,2,3,2,1.38888888888889,0,5,2.11111111111111,70,1.27777777777778, ,1,1,2,1,2,1,1,1,2,1,2,1,1,1,1,2,1,2,2,1,2,1,1,1,1,1,2,1,2,1,2,1,1,1,1,2,1,1,10:23:26,2.6,2,0,4,5,5,5,5,5,5,5,5,5,4,3,4,3,2,2,2,27,5.5,2.09090909090909,4,1,4,1,4,1,1,1,1,1,4,4,1,1,5,1,1,1,1,4,1,4,4,4,3,3,1,2,4,4,5,2,4,2,3.23076923076923,1,2,2,1, ,2,2,5, ,7,2,8,8,2,8,2,5,1, , ,3,2,3,1, , , , , , , , , , ,5,5,5,6,6,6,6,8,4,4,4,4,3,3,3,3,3,4,3,2,4,4,3,2,5,5,5,5,5,5,5,5,1,1,1,3,3,4,4,4,3,4,3,3,5,4,4,1,2,4,1,2,4,2,5,5,5,5,5,1,3,4,4,4,4,4,2.53846153846154,3,4,3,1,1,2,4,3,1,3,2,3,3,3,36.8,36.5,2,36.65,1,26,5,1,-2.19817649102768,-2.10864544273409,SMU
1996,5,5,3,4,5,5,5,5,3,5,5,4,5,1,5,2,6.05555555555556,0,3.11111111111111,4.44444444444444,70,4.38888888888889, ,4.54545454545455,1,6,7,6,6,7,7,5,6,6,7,6,4,5,5,7,5,7,7,7,6,7,2,7,6,1,5,3,6,7,6,3,1,6,3,1,2,10:21:47,3.4,2,0,4,4,2,3,4,3,3,3,3,3,3,2,7,2,2,2,2,8,4.83333333333333,4.09090909090909,2,5,5,1,4,5,5,5,3,5,5,5,5,1,5,4,5,5,5,5,1,2,2,1,4,2,1,1,1,1,2,1,1,2,1.61538461538462,2,2,2,1, ,2,2,5, ,1, ,8,1,2,1,2,8,1, , ,3,1, ,1, , , , , , , , , , ,2,5,6,6,7,3,4,6,1,1,5,5,3,5,5,5,5,5,4,1,5,5,5,3,5,5,5,4,1,4,2,2,4,4,5,2,1,5,5,4,1,3,2,2,3,2,5,4,4,2,4,2,4,3,3,3,3,2,3,4,3,3,3,4,2,3,3.38461538461538,4,4,4,4,2,2,2,2,5,4,5,4,2,4,36.6,36.4,2,36.5,1,26,5,1,2.18316675056317,1.35489035094436,SMU
1996,2,2,2,2,2,2,2,4,2,4,2,3,2,2,2,2,4.55555555555556,0,5,4.44444444444444,71,2.11111111111111, ,2.36363636363636,1,6,6,6,6,6,6,6,2,3,2,2,3,6,4,2,7,6,3,2,2,3,2,2,2,2,2,2,2,2,2,2,3,2,2,2,2,10:21:08,2.2,2,13,4,5,5,5,5,5,5,5,5,5,1,6,4,3,3,3,3,19,5.5,4.36363636363636,5,5,5,4,5,2,5,4,4,4,5,4,5,4,5,4,4,5,4,5,2,2,2,2,2,3,2,2,2,2,4,4,3,2,2.46153846153846,2,2,2,1, ,4,4,5, ,8,4,8,7,1, ,2,5,1, , ,3,1, ,1, , , , , , , , , , ,6,5,5,4,7,6,6,6,3,2,4,2,4,4,4,4,4,4,3,1,2,4,4,4,4,4,3,4,5,4,4,5,2,2,3,1,2,4,4,2,3,4,2,2,4,2,4,4,3,5,4,4,3,2,4,4,4,2,3,2,2,3,2,4,2,5,3.38461538461538,5,5,5,2,1,2,2,5,3,2,5,5,2,5,36.7,36.7,2,36.7,1,26,5,1,.774877851480395,-1.18091264085594,SMU
1993,4,4,2,3,2,2,4,4,4,2,2,2,2,3,4,2,2.83333333333333,0,5,3.55555555555556,70,1.55555555555556,1,3,1,4,4,2,2,4,3,3,2,4,5,2,2,2,2,2,4,2,2,2,1,3,2,1,3,2,1,1,1,1,1,1,2,1,2,2,1,10:16:06,2.6,2,0,4,5,5,5,5,5,5,5,5,5,4,2,2,2,1,1,1,16,3.83333333333333,2.63636363636364,2,2,2,2,2,4,4,4,2,3,2,3,3,3,4,4,3,4,4,4,1,2,4,2,2,3,3,3,2,2,4,2,2,4,2.69230769230769,1,1,2,1, ,4,4,5, ,5,5,8,3,1, ,2,8,3,1,1,1,1, ,1, , , , , , , , , , ,3,5,4,4,4,3,4,7,2,4,5,5,2,2,4,5,3,5,3,2,3,3,4,4,3,3,2,5,5,3,4,4,1,1,2,1,4,4,3,4,3,2,1,1,4,4,1,2,4,4,4,3,1,4,3,3,2,2,2,4,4,3,2,2,2,1,2.76923076923077,2,4,4,3,3,1,3,2,3,3,3,5,2,3,35.6,35.6,2,35.6,1,27,5,1,-.842046440059085,-1.79940117544137,SMU
1991,3,4,2,4,2,2,4,4,4,4,3,2,2,3,4,4,4.22222222222222,0,4.44444444444444,3.22222222222222,70,3.38888888888889, ,3.27272727272727,1,5,5,5,3,4,4,4,3,5,5,5,4,4,3,3,6,3,5,5,3,4,3,5,4,3,3,5,2,3,3,3,3,3,3,3,3,10:14:15,3,2,2,4,5,5,5,5,5,5,2,4,4,5,4,5,1,3,3,3,22,4,3.45454545454545,4,4,4,4,2,2,4,4,3,3,4,4,4,3,4,4,2,2,3,3,2,3,3,3,3,4,3,3,2,3,2,4,4,2,3,1,2,2,1, ,4,4,5, ,8,8,7,7,2,1,2,3,1, , ,1,1, ,1, , , , , , , , , , ,2,5,5,5,4,3,3,7,2,3,3,4,2,1,2,2,2,5,4,2,2,2,4,4,4,3,3,3,3,3,3,3,3,3,3,2,5,4,3,4,4,4,1,2,2,2,2,2,4,3,2,2,2,2,3,4,2,3,2,4,4,2,2,2,1,4,3.07692307692308,3,3,4,4,2,2,3,4,3,3,3,5,3,3,35.8,35.8,2,35.8,1,26,5,1,.461924762795334,.24161098869057,SMU
1995,2,2,2,2,3,4,2,2,3,1,2,4,2,2,2,2,2.44444444444444,0,3.77777777777778,2.77777777777778,70,2.55555555555556, ,2.27272727272727,1,1,2,2,4,5,3,2,5,1,2,2,1,3,2,3,2,2,2,2,3,5,3,2,2,2,2,3,1,3,3,3,2,3,3,1,3,10:12:04,2.4,2,0,4,3,3,4,4,4,4,4,4,4,4,4,4,2,2,5,4,28,6.5,2,2,2,2,2,2,2,2,2,2,2,2,3,5,1,4,4,1,2,2,3,2,4,4,4,2,3,4,5,4,5,4,4,5,4,4,2,2,2,1, ,4,4,5, ,3,2,8,6,2,2,2,8,1, , ,1,1, ,2,Overseas Community Service Group,School projects, , , ,15,5, , , ,7,7,7,7,5,6,6,7,3,2,2,4,3,2,4,4,3,5,4,2,3,4,4,4,3,5,4,4,4,4,4,4,2,4,2,3,4,4,3,4,2,4,2,2,2,3,4,2,4,3,2,2,4,3,4,4,2,4,4,2,4,3,3,3,3,4,2.07692307692308,2,2,2,2,2,2,2,2,2,2,3,4,2,2,36,35.9,2,35.95,1,27,5,1,-1.20715837685832,-.686121813187586,SMU
1995,2,2,2,2,2,2,2,2,2,2,2,4,4,4,5,4,2.72222222222222,0,4.11111111111111,2.66666666666667,71,2.22222222222222, ,2,1,2,2,2,3,5,5,2,2,2,2,2,2,4,6,1,4,1,2,2,2,2,2,2,3,2,2,2,2,2,2,2,2,2,3,4,2,10:09:19,4.2,2,0,4,5,4,4,4,4,4,4,4,4,1,3,2,2,2,3,2,18,4.5,3.27272727272727,4,4,4,4,4,1,2,1,4,4,4,2,4,2,4,2,2,2,4,2,2,2,2,1,2,4,2,2,2,4,3,2,2,2,2.30769230769231,2,2,2,1, ,4,4,5, ,1, ,4,4,2,8,2,8,1, , ,1,1, ,1, , , , , , , , , , ,7,4,4,4,4,4,4,6,3,4,4,4,4,2,4,4,2,4,2,4,1,2,4,4,4,3,3,4,4,3,2,1,2,3,2,2,2,4,4,4,4,4,2,2,2,4,2,4,4,4,4,4,2,4,4,4,2,2,4,2,2,2,3,3,2,2,2.92307692307692,3,4,3,2,3,2,2,4,3,2,4,4,2,4,36.4,36.6,2,36.5,1,26,5,1,-.946364136287439,-1.05721493393885,SMU
1994,3,3,2,3,3,2,3,3,3,3,2,3,3,2,3,2,4,0,4,2.55555555555556,70,4, ,2.72727272727273,1,4,4,4,4,4,4,4,4,4,4,4,4,4,4,4,4,4,4,4,4,4,4,4,4,4,4,4,4,4,4,4,4,4,4,4,4,9:58:19,2.6,2,0,4,4,4,4,4,4,4,4,4,4,4,5,4,5,5,5,5,19,4.33333333333333,2.27272727272727,2,3,2,4,2,2,2,2,2,2,2,2,3,3,3,2,2,2,2,4,2,4,5,5,3,4,4,4,4,5,4,3,3,3,3.92307692307692,1,2,2,1, ,4,4,5, ,5,5,5,5,2,3,2,8,1, , ,1,1, ,1, , , , , , , , , , ,3,5,5,5,4,4,4,7,3,2,3,4,4,3,3,3,3,3,4,3,3,3,4,4,4,3,3,3,4,3,4,4,2,2,3,3,4,4,4,4,4,3,3,3,3,3,3,3,3,5,3,3,3,3,3,3,3,3,3,3,3,3,4,4,3,3,3.15384615384615,4,3,4,2,2,3,3,4,3,3,3,2,3,4,36.4,35.9,2,36.15,1,26,5,1,.253289370338627,.921948376734552,SMU
1993,2,2,3,2,2,2,3,3,2,2,2,3,2,2,4,3,3.88888888888889,0,4,3.11111111111111,79,3.83333333333333, ,2.27272727272727,1,4,4,4,4,4,4,4,4,4,4,6,2,4,4,2,4,4,4,4,4,4,3,4,2,4,4,4,6,3,4,3,4,4,4,4,4,9:58:09,2.8,2,2,4,4,4,4,4,4,4,4,4,4,5,6,4,5,2,5,2,15,3.5,2.63636363636364,3,2,2,3,2,3,3,3,3,3,2,3,3,3,3,3,3,4,3,3,1,4,4,4,3,4,3,3,2,4,4,3,4,4,3.53846153846154,1,2,2,1, ,4,4,5, ,3,1,5,5,2,3,2,3,1, , ,1,1, ,1, , , , , , , , , , ,3,4,4,4,3,3,4,7,2,3,3,3,3,3,3,3,3,4,2,2,3,3,4,2,4,4,2,4,3,3,4,3,2,3,2,3,4,4,2,4,2,2,4,2,4,3,3,3,3,4,3,3,3,3,3,3,3,3,3,3,3,3,3,3,3,3,2.46153846153846,2,2,3,3,3,3,3,2,2,2,3,3,2,2,35.9,36.2,2,36.05,1,26,5,1,.148971674110273,.736401816358921,SMU
1993,4,3,3,4,4,3,4,4,2,3,3,2,2,2,4,2,2.33333333333333,0,4.88888888888889,3.88888888888889,79,3.11111111111111, ,3.36363636363636,1,2,2,2,1,2,2,1,2,3,2,2,1,7,2,2,2,5,2,5,3,5,6,1,2,2,2,3,3,3,2,3,2,2,3,3,6,9:53:15,2.4,2,0,4,5,5,4,5,5,5,5,5,5,3,4,6,2,4,2,1,15,5.16666666666667,3.45454545454545,4,4,5,5,2,3,4,3,2,2,4,4,4,4,4,4,5,5,2,3,2,2,4,4,2,3,1,1,1,3,3,4,4,2,2.61538461538462,1,2,2,1, ,4,4,5, ,8,3,5,1,1, ,2,8,1, , ,1,2,5,1, , , , , , , , , , ,6,5,5,7,6,2,2,7,3,2,5,5,3,2,4,2,4,4,4,3,2,2,3,4,4,4,4,3,4,4,3,4,3,4,2,1,4,3,2,5,1,3,2,1,1,2,4,4,2,3,4,3,2,4,4,4,2,2,3,4,4,2,3,4,1,2,3.07692307692308,3,4,4,2,2,4,3,3,4,2,3,4,2,4,36.7,37,2,36.85,1,26,5,1,-1.31147607308668,-.0676332786021485,SMU
1995,2,2,1,2,3,1,4,2,2,4,1,2,4,3,2,4,3.38888888888889,0,3.55555555555556,3.22222222222222,70,3.44444444444444, ,2.18181818181818,1,4,5,5,2,6,5,2,5,4,1,5,2,2,1,5,3,2,2,4,3,3,3,2,2,2,3,4,4,6,5,5,2,3,3,4,4,9:53:09,3,2,2,4,4,4,4,4,3,3,3,3,4,5,2,1,4,1,1,1,27,4.83333333333333,2.81818181818182,4,4,2,4,2,1,4,2,4,2,2,3,4,2,2,2,4,4,3,5,2,2,2,4,5,5,1,3,2,1,2,2,2,2,2.53846153846154,2,2,2,1, ,4,2,5, ,4,2,6,6,2,8,2,8,3,1,5,2,1, ,1, , , , , , , , , , ,5,7,5,4,4,4,4,8,4,4,4,3,3,4,3,4,3,4,2,1,3,3,3,3,4,4,4,4,4,4,4,3,2,2,3,1,4,3,4,4,2,2,3,1,2,4,4,4,2,2,2,2,2,2,4,4,3,4,4,3,4,4,4,4,2,1,3.61538461538462,4,3,4,4,4,4,2,4,4,5,2,3,3,4,37,37,1,37,1,26,5,1,-.320457958917317,.303459842149114,SMU
1994,1,2,1,2,2,1,2,2,2,1,2,2,1,2,2,3,4.11111111111111,0,3.88888888888889,3.33333333333333,70,3.38888888888889, ,1.63636363636364,1,5,5,4,5,5,6,3,5,2,4,3,3,4,6,4,3,5,2,5,3,3,4,3,3,3,4,4,3,3,3,3,5,3,3,3,3,9:50:39,2,2,2,4,4,4,4,5,4,4,4,3,3,4,5,5,4,3,2,5,33,5.66666666666667,3.63636363636364,5,4,4,4,4,3,3,3,3,3,4,3,4,3,5,2,2,3,4,4,2,4,4,4,2,4,2,3,3,3,4,4,5,4,3.53846153846154,1,2,2,1, ,4,4,5, ,1, ,6,6,2,8,2,8,1, , ,1,1, ,2,Windsurfing,Crusades,Emerging Markets, , ,4,12,2, , ,6,6,5,5,6,6,6,6,4,2,4,5,3,3,3,4,4,4,3,2,3,3,4,4,4,3,3,4,4,4,4,4,2,2,2,2,5,4,4,5,2,3,3,2,5,4,2,3,4,4,4,3,3,3,4,3,4,4,4,2,4,4,4,4,2,3,2.46153846153846,4,3,3,2,2,1,2,3,2,2,3,5,2,3,35.9,36,2,35.95,1,26,5,1,.35760706656698,.24161098869057,SMU
1994,2,2,2,2,2,2,2,4,2,2,2,2,2,2,2,2,2.55555555555556,0,5,3,71,2.27777777777778, ,2.18181818181818,1,2,2,2,3,6,2,2,2,2,2,6,2,2,2,3,2,2,2,2,2,3,2,2,2,2,2,2,2,2,2,2,3,2,4,2,3,9:39:38,2,2,0,4,5,5,5,5,5,5,5,5,5,5,8,5,6,6,4,6,41,4.83333333333333,3.36363636363636,4,3,2,3,3,4,4,4,4,3,3,2,4,2,4,2,3,4,2,4,2,3,4,4,3,5,3,4,3,4,4,4,3,4,3.69230769230769,2,2,1,1, ,4,4,5, ,8,6,8,8,1, ,2,8,3,1,5,1,1, ,2,SMU Ambassadors,Emerging Markets Club,AMT,SMU DIving, ,15,3,4,1, ,4,5,5,5,5,5,5,7,3,2,3,3,3,3,3,3,3,3,3,3,3,4,3,2,4,4,4,4,4,4,4,4,2,2,2,3,3,3,3,3,3,3,2,2,4,2,4,2,2,2,4,2,2,2,4,4,4,4,4,2,4,4,5,5,3,4,2.84615384615385,2,3,3,3,3,2,2,3,4,3,3,5,3,3,36,36.1,2,36.05,1,26,5,1,-1.10284068062997,-.995366080480305,SMU
1995,2,4,2,2,2,2,2,3,2,2,2,2,3,2,2,2,4.55555555555556,0,4.55555555555556,1.44444444444444,70,3.16666666666667, ,2.27272727272727,1,6,6,3,6,6,6,3,6,5,3,2,3,3,3,6,6,6,3,3,2,6,2,6,3,3,2,4,2,2,4,2,6,2,2,2,4,9:39:21,2.2,2,4,4,5,5,5,5,5,3,3,5,5,4,3,4,3,3,3,3,14,4.66666666666667,1.36363636363636,3,1,1,1,1,1,1,1,1,3,1,1,1,1,1,1,4,1,2,1,2,2,2,4,2,4,4,3,2,4,4,2,2,2,2.84615384615385,2,2,2,1, ,4,4,5, ,3,1,8,4,1, ,2,8,1, , ,1,2,3,1, , , , , , , , , , ,6,5,4,4,5,4,4,7,2,2,4,4,2,3,4,2,4,4,2,2,2,2,5,5,4,5,3,4,4,4,4,4,2,2,2,1,5,5,5,5,2,2,4,2,2,2,4,3,4,2,4,2,4,4,4,4,2,4,4,2,4,4,4,4,2,4,2.76923076923077,3,2,4,2,4,2,4,2,2,2,2,4,3,4,36.3,36.1,2,36.2,1,27,5,1,.774877851480395,-.00578442514360494,SMU
1995,4,2,3,2,2,3,3,2,3,2,2,2,2,2,3,2,4.05555555555556,0,4,2.11111111111111,79,3.83333333333333, ,2.54545454545455,1,5,3,3,5,5,4,3,5,4,5,5,4,4,3,3,5,4,3,3,3,5,3,3,4,3,4,4,5,3,5,4,3,5,4,4,4,9:37:36,2.2,2,4,4,4,4,4,4,4,4,4,4,4,1,2,4,2,2,2,2,20,2.83333333333333,1.81818181818182,3,3,3,3,1,1,1,1,1,2,1,2,3,2,3,1,2,3,2,1,1,3,4,4,3,2,2,3,2,2,2,2,5,3,2.84615384615385,2,2,2,1, ,4,1,5, ,1, ,3,8,2,2,2,8,1, , ,1,1, ,2,AIESEC, , , , ,7, , , , ,1,4,2,4,4,2,3,6,2,2,2,4,3,2,2,2,2,5,3,2,2,4,2,3,3,3,3,4,4,4,4,3,2,2,2,2,3,5,5,3,3,4,2,2,2,2,4,3,3,3,3,2,3,3,3,3,3,3,3,3,3,3,2,3,3,4,2.92307692307692,3,2,3,3,2,2,3,4,3,3,3,4,4,3,36.1,36.2,2,36.15,1,26,5,1,.305448218452804,.736401816358921,SMU
1993,2,2,2,1,1,2,2,2,2,2,1,1,2,1,2,3,1.55555555555556,0,3.66666666666667,2.88888888888889,70,1.11111111111111, ,1.72727272727273,1,2,2,1,1,1,1,1,1,1,7,2,1,1,2,1,1,1,1,1,1,1,1,1,1,1,1,1,2,1,1,1,1,1,2,1,1,9:27:46,1.8,2,16,4,4,4,4,4,4,4,2,4,3,4,4,6,3,4,1,5,23,5,2.36363636363636,4,1,4,4,4,1,1,1,1,1,4,1,4,2,4,4,3,4,2,2,1,4,4,4,2,2,3,3,2,5,4,4,4,4,3.46153846153846,1,2,2,1, ,4,4,5, ,5,5,8,8,1, ,2,6,1, , ,1,2,4,1, , , , , , , , , , ,4,5,6,5,5,5,5,7,3,2,5,5,3,2,5,5,2,5,4,4,5,4,2,2,4,4,4,5,4,4,4,4,1,1,3,1,4,5,2,5,1,2,4,4,4,2,4,1,2,3,4,2,4,1,4,4,4,5,4,2,5,4,4,2,2,4,2.07692307692308,2,3,3,1,2,1,2,3,1,2,2,5,2,3,36,36.1,2,36.05,1,27,5,1,-2.04169994668515,-2.29419200310972,SMU
1993,2,4,2,2,3,2,2,3,4,3,2,2,2,2,3,2,5.11111111111111,0,3.66666666666667,2.33333333333333,71,3.27777777777778, ,2.63636363636364,1,5,5,5,6,6,6,5,6,5,4,5,6,3,6,5,5,6,3,3,2,5,2,3,3,3,5,5,2,2,3,2,3,4,5,3,4,9:27:05,2.2,2,6,4,5,4,4,5,4,2,2,4,3,3,3,4,1,2,3,3,19,5.16666666666667,2,2,2,3,4,2,2,1,1,1,2,2,2,4,1,2,2,3,1,2,4,2,3,3,2,2,3,1,4,2,4,4,3,2,3,2.76923076923077,1,2,2,1, ,4,4,5, ,1, ,6,8,1, ,2,8,1, , ,2,1, ,2,Archery Club, , , , ,4, , , , ,3,6,5,7,5,5,5,5,3,4,4,5,2,2,4,2,1,5,4,4,1,4,4,5,4,5,2,5,3,2,4,3,2,1,2,1,5,5,2,4,2,4,4,4,5,5,2,1,2,4,2,4,3,4,4,3,4,4,3,2,5,4,4,2,1,4,2.61538461538462,3,3,2,2,4,2,3,2,3,4,2,4,2,2,36.8,36.9,2,36.85,1,26,5,1,1.29646633262216,.117913281773483,SMU
1992,2,4,2,2,2,2,2,4,2,2,3,2,4,2,4,4,4.33333333333333,3,4.55555555555556,4.11111111111111,71,3.66666666666667,2,2.45454545454545,1,5,5,5,5,5,5,5,5,3,3,3,5,5,5,3,3,5,3,5,3,5,3,3,5,5,3,5,3,3,3,3,5,3,3,3,3,9:25:13,3.2,2,0,4,5,4,5,5,5,5,4,4,4,4,6,5,6,6,2,2,12,2.16666666666667,3.27272727272727,4,4,3,4,3,2,2,4,4,4,2,5,4,4,4,4,4,4,4,4,1,2,3,2,2,3,2,2,3,2,4,3,2,3,2.53846153846154,1,1,1,1, ,4,4,4,2,2,3,4,1,1, ,2,3,1, , ,1,1, ,1, , , , , , , , , , ,3,2,2,2,2,2,2,7,1,5,5,5,1,1,5,5,1,5,5,5,3,4,4,4,4,4,4,4,3,3,4,2,3,3,2,1,5,5,1,5,1,1,2,2,4,5,2,2,2,3,2,3,2,4,4,3,4,4,3,2,2,2,3,2,2,2,2.69230769230769,4,4,3,2,2,2,2,3,2,2,4,5,2,3,35.6,35.8,2,35.7,1,26,5,1,.566242459023687,.550855255983289,SMU
1993,3,4,3,4,3,2,4,4,4,2,3,2,3,2,4,2,4.72222222222222,0,3.88888888888889,3.55555555555556,71,4.16666666666667, ,3.27272727272727,1,5,5,5,5,4,5,5,5,5,4,5,4,4,4,6,5,6,3,5,4,4,4,4,4,4,4,6,4,3,5,3,4,4,4,5,4,9:23:16,2.6,2,.5,4,4,3,4,4,4,4,4,4,4,1,3,6,2,2,2,2,11,3.83333333333333,3.18181818181818,3,3,3,3,3,3,3,4,3,4,3,2,4,4,4,3,3,4,4,4,2,2,2,2,4,3,2,3,2,2,3,4,4,2,2.69230769230769,2,2,2,1, ,4,4,5, ,1, ,4,2,1, ,2,8,3,1,2,1,1, ,1, , , , , , , , , , ,3,4,4,4,4,4,4,6,2,4,5,5,2,3,2,2,4,5,5,2,3,3,4,4,4,4,3,4,4,3,3,3,3,3,3,1,4,4,4,4,3,4,2,3,4,3,3,2,3,4,3,4,3,4,3,4,3,3,3,2,4,4,3,3,1,4,3.23076923076923,4,3,3,3,3,4,3,3,3,3,3,4,3,4,36.6,36.4,2,36.5,1,26,5,1,.931354395822925,1.10749493711018,SMU
1993,3,3,4,3,3,2,4,3,3,4,4,2,4,4,4,3,4.22222222222222,0,3.44444444444444,3.11111111111111,70,4.27777777777778, ,3.27272727272727,1,4,5,3,5,5,4,3,3,5,3,5,4,5,5,5,4,5,3,3,4,5,4,5,4,4,6,5,5,3,2,4,3,4,4,5,7,9:19:37,3.4,2,1,4,4,3,4,4,4,4,3,2,3,4,2,5,5,3,5,4,23,3.5,3.09090909090909,4,3,3,4,2,4,2,3,3,2,4,3,4,3,4,3,2,2,4,3,2,4,2,2,2,3,2,2,4,4,3,4,2,2,2.76923076923077,1,2,2,1, ,4,4,5, ,4,3,3,3,1, ,2,3,1, , ,1,2,6,2,Volunteer Group, , , , ,5, , , , ,4,3,5,3,3,3,5,7,2,4,3,3,4,3,2,3,3,4,3,2,4,2,3,3,3,4,4,3,2,2,3,3,4,2,3,3,3,3,2,3,3,4,3,2,3,2,4,4,3,3,4,3,4,2,2,3,3,3,2,3,4,3,3,4,2,3,3.15384615384615,4,4,3,3,3,3,3,4,2,4,2,2,3,3,35.7,35.7,2,35.7,1,26,5,1,.461924762795334,1.23119264402727,SMU
1991,2,2,2,4,3,4,2,2,2,2,2,4,4,4,4,2,4.66666666666667,0,4.66666666666667,3.22222222222222,71,3, ,2.45454545454545,1,5,4,3,5,5,6,5,5,2,6,3,6,3,5,5,5,5,6,5,2,5,2,5,5,3,3,3,3,2,2,2,3,2,2,2,3,9:12:23,3.6,2,0,4,5,5,4,5,5,4,4,5,5,4,2,3,2,2,2,2,12,5.5,3.18181818181818,4,2,2,2,4,4,4,3,2,4,4,4,3,4,3,2,3,3,4,3,1,3,4,4,4,2,4,2,3,4,4,3,4,2,3.30769230769231,1,2,2,1, ,4,4,4,1,3,3,4,2,1, ,2,4,1, , ,1,1, ,1, , , , , , , , , , ,3,6,6,6,6,6,5,7,1,4,4,4,4,4,4,4,2,5,4,4,4,4,3,3,4,3,2,4,4,4,4,4,4,4,2,4,4,5,2,4,2,2,4,4,5,4,4,4,3,4,3,4,4,4,4,4,4,4,4,3,4,3,4,4,2,2,2.92307692307692,3,3,4,3,2,2,3,3,3,3,3,3,3,3,36.7,37,2,36.85,1,26,5,1,.879195547708749,-.191330985519236,SMU
1994,2,2,2,2,2,2,2,2,2,2,2,3,2,2,4,2,2.44444444444444,0,5,3.77777777777778,71,2.38888888888889, ,2,1,5,1,2,2,5,2,1,2,2,2,3,2,1,3,3,4,3,1,3,3,2,2,2,3,2,2,2,3,3,4,2,1,2,3,2,2,9:06:11,2.6,2,0,4,5,5,5,5,5,5,5,5,5,4,4,5,1,1,1,2,16,4.33333333333333,3.27272727272727,4,4,4,3,4,2,2,3,2,4,4,4,4,4,4,3,4,4,3,4,1,3,4,4,4,4,3,3,4,4,4,4,4,3,3.69230769230769,2,2,2,1, ,4,4,5, ,4,2,6,6,2,1,2,8,1, , ,2,1, ,1, , , , , , , , , , ,4,5,5,4,4,4,4,7,3,3,3,5,5,2,2,2,2,4,2,2,4,4,4,4,4,4,4,4,4,4,4,4,1,1,1,2,4,4,4,4,2,3,1,1,4,3,3,2,4,2,2,2,2,4,4,4,4,4,4,2,4,4,4,4,3,3,2.38461538461538,4,3,3,2,2,2,2,2,3,2,2,4,2,2,36.4,36.6,2,36.5,1,26,5,1,-1.20715837685832,-.871668373563217,SMU
1996,3,3,2,2,3,4,4,2,2,3,3,2,2,1,2,2,4.55555555555556,0,5,3.66666666666667,79,3.55555555555556, ,2.81818181818182,1,4,5,5,5,5,6,5,2,5,5,6,4,4,4,5,3,5,4,4,3,5,3,3,6,5,3,3,3,3,3,3,3,3,4,3,4,11:41:14,1.8,2,5,3,5,5,5,5,5,5,5,5,5,3,4,6,3,3,3,4,31,5.83333333333333,4,4,4,4,4,4,4,4,4,4,4,4,4,4,3,4,3,4,4,3,4,2,3,2,3,2,3,2,3,2,4,4,3,2,3,2.76923076923077,2,2,2,1, ,4,4,5, ,2,8,6,5,2,2,2,8,2,2,1,1,2,4,2,People for animal welfare, , , , ,3, , , , ,5,6,6,6,6,6,6,9,3,4,4,4,4,3,3,3,3,5,4,2,3,3,5,5,4,4,4,3,4,4,4,4,3,3,3,2,4,5,5,4,4,4,1,4,4,4,4,4,4,4,4,5,3,3,4,4,3,3,4,3,4,3,4,3,1,4,3.07692307692308,4,5,4,2,2,2,2,4,2,2,5,4,2,4,36.6,37.3,2,36.95,1,26,5,1,.774877851480395,.427157549066201,SMU
1990,2,2,2,2,2,4,4,2,2,2,2,3,2,2,2,2,3.5,0,4.66666666666667,3.33333333333333,70,1.38888888888889, ,2.36363636363636,1,6,3,2,5,2,3,6,2,2,2,3,4,3,2,5,5,6,2,2,1,2,2,1,2,2,1,2,1,1,1,1,1,2,1,1,1,10:59:53,2.2,2,4,3,5,4,5,4,5,5,5,5,4,4,5,3,3,2,3,3,15,6.33333333333333,2.90909090909091,5,4,4,3,2,2,2,2,2,3,3,4,4,3,4,2,3,5,3,2,1,1,3,4,3,4,2,4,1,3,4,2,4,2,2.84615384615385,1,2,2,1, ,4,4,5, ,1, ,8,6,2,2,2,8,1, , ,2,1, ,1, , , , , , , , , , ,6,6,7,7,6,6,6,6,3,2,5,5,2,2,4,2,3,5,3,2,2,2,2,2,4,3,2,5,4,4,5,4,1,1,2,1,3,4,4,4,2,1,2,2,4,5,2,1,2,4,1,4,2,3,4,4,2,2,4,2,3,4,4,3,2,2,3.15384615384615,3,4,4,3,3,3,2,4,3,2,5,4,2,3,35.8,36.2,2,36,1,27,5,1,-.216140262688964,-1.98494773581701,SMU
1996,3,3,3,3,3,3,3,3,3,3,3,3,3,3,3,3,4,0,3.33333333333333,2.33333333333333,70,4, ,3,2,4,4,4,4,4,4,4,4,4,4,4,4,4,4,4,4,4,4,4,4,4,4,4,4,4,4,4,4,4,4,4,4,4,4,4,4,10:56:53,3,2,1,3,4,4,4,4,3,3,2,3,3,4,5,4,3,3,3,3,11,2.66666666666667,2.81818181818182,4,3,3,3,3,2,1,3,3,3,3,3,2,2,2,3,2,2,3,2,2,3,4,4,3,4,4,3,1,4,5,4,3,2,3.38461538461538,1,2,2,1, ,4,4,5, ,3,3,4,2,1, ,2,8,1, , ,1,1, ,1, , , , , , , , , , ,3,3,2,1,2,5,4,6,2,3,4,4,4,2,2,2,2,2,2,2,3,4,3,5,3,5,5,5,5,3,3,3,3,3,3,3,2,2,3,3,3,4,2,2,2,3,3,3,3,3,3,3,3,3,4,4,4,4,4,4,4,4,3,3,3,3,3,3,3,3,3,3,3,3,3,3,3,3,3,3,3,36,36.1,4,36.05,1,27,5,1,.253289370338627,.921948376734552,SMU
1994,1,4,1,5,1,1,1,3,3,3,1,1,2,5,4,2,3.44444444444444,0,5,2.44444444444444,79,3.27777777777778, ,2.18181818181818,1,3,4,5,4,4,2,4,4,4,4,2,4,2,4,2,5,3,2,3,3,4,3,4,3,3,3,5,3,3,3,3,3,4,3,3,3,10:56:47,2.8,2,0,3,5,5,5,5,5,5,5,5,5,2,2,1,1,2,2,1,9,4.5,1.72727272727273,1,1,1,5,1,1,3,1,1,1,3,2,4,1,5,1,2,2,1,4,2,2,4,2,4,4,2,4,4,5,3,4,5,3,3.53846153846154,1,2,2,1, ,4,4,5, ,2,1,3,1,2,1,2,5,1, , ,1,1, ,1, , , , , , , , , , ,4,5,5,5,4,4,4,7,2,2,4,5,1,4,4,3,4,5,5,1,2,4,4,4,4,4,2,4,3,4,4,2,2,2,2,1,4,5,4,3,3,2,1,1,5,4,2,3,5,5,2,4,3,3,3,4,2,2,2,2,4,2,4,3,4,1,2,2,4,2,2,2,1,1,2,2,2,3,5,1,2,36.5,36.5,2,36.5,1,26,5,1,-.268299110803141,.117913281773483,SMU
1993,3,4,2,3,2,3,4,2,3,2,3,3,1,1,2,1,4.33333333333333,0,4.11111111111111,3.66666666666667,71,2.55555555555556, ,2.81818181818182,1,3,3,4,6,6,5,3,5,2,5,3,6,5,6,5,6,2,3,1,1,3,1,2,2,3,4,3,2,4,2,2,3,3,4,2,4,10:53:04,1.6,2,0,3,5,4,4,4,4,4,4,4,4,2,2,3,2,2,4,4,19,4.83333333333333,2.36363636363636,2,2,2,4,2,2,2,2,2,2,4,3,4,3,4,4,3,4,4,4,2,4,5,4,2,5,3,2,3,2,4,4,4,4,3.53846153846154,1,2,2,1, ,4,4,5, ,1, ,6,5,1, ,2,8,3,1,6,2,1, ,1, , , , , , , , , , ,7,4,5,3,5,5,5,6,3,2,2,4,2,4,4,4,4,4,4,2,4,4,4,4,4,4,4,4,4,4,4,4,4,4,4,1,4,4,4,4,4,4,2,4,4,2,4,2,2,3,4,2,4,2,4,4,4,4,4,4,4,4,4,3,5,2,2.53846153846154,2,5,4,2,2,2,2,2,2,2,3,5,2,3,35.8,36,2,35.9,1,26,5,1,.566242459023687,-.686121813187586,SMU
 ,3,2,3,3,3,3,3,3,3,3,3,3,3,3,3,3,3.83333333333333,0,3,3.22222222222222,70,3.88888888888889, ,2.90909090909091, ,4,5,4,4,3,4,4,4,4,3,5,3,4,4,4,3,3,4,4,4,4,4,4,3,5,4,4,4,3,4,3,4,4,5,3,4,10:52:08,3, ,0,3,3,3,3,3,3,3,3,3,3,4,6,6,5,5,5,5,23,3.16666666666667,2.90909090909091,2,3,4,3,3,3,3,2,3,3,3,3,3,3,3,4,4,3,3,3, , , , , , , , , , , , , , , , , ,2,1, ,4,4,5, ,8,8,8,8,1, ,2,8,1, , ,2,1, ,1, , , , , , , , , , ,4,3,3,3,3,3,3,6,3,3,3,2,3,3,3,3,3,3,3,3,3,3,3,3,3,3,3,3,3,3,3,3,3,3,3,3,3,3,3,3,3,3,3,3,3,3,3,3,3,3,3,3,3,3,3,3,3,3,3,3,3,3,3,3,3,3,3,3,3,3,3,3,3,3,3,3,3,3,3,3,3,36.7, , ,36.7,1,27,5,1,.0968128259960969,.798250669817464,SMU
1991,2,4,1,2,2,2,2,3,2,2,2,2,2,2,4,4,4.83333333333333,0,4.88888888888889,4.55555555555556,70,2.44444444444444, ,2.18181818181818,1,6,5,5,6,7,6,5,6,3,5,3,5,4,3,3,6,7,2,3,1,2,3,2,5,6,2,2,1,1,1,1,5,2,2,3,2,10:51:34,2.8,2,3,3,5,4,5,5,5,5,5,5,5,3,3,5,1,2,1,3,10,5.16666666666667,4.54545454545455,5,5,5,5,5,4,4,4,4,4,5,5,5,5,5,4,4,4,5,4,1,3,2,4,4,2,4,4,4,3,4,4,4,4,3.53846153846154,2,2,2,1, ,4,4,5, ,4,2,3,2,1, ,2,8,1, , ,1,1, ,1, , , , , , , , , , ,5,5,5,5,6,5,5,6,2,2,5,2,4,4,4,4,4,5,3,1,2,4,5,4,4,4,2,4,2,2,4,2,2,3,2,2,4,5,5,5,5,4,2,2,4,4,2,1,4,4,4,2,2,1,2,4,2,2,2,2,4,4,4,2,1,5,2.84615384615385,3,3,4,4,2,2,2,3,3,3,3,4,2,3,36.8,37,2,36.9,1,26,5,1,1.03567209205128,-.809819520104674,SMU
1995,2,2,2,3,1,2,3,3,1,1,1,3,4,2,4,2,1.61111111111111,0,4,3.11111111111111,70,1.55555555555556, ,1.90909090909091,1,2,2,1,1,1,2,1,5,1,2,2,1,1,2,1,2,1,1,2,2,1,2,3,1,2,1,2,1,1,1,2,2,1,1,2,1,10:51:12,3,2, ,3,5,4,5,5,5,4,2,3,3,4,5,5,2,4,4,4,21,4.33333333333333,2.45454545454545,4,4,4,3,2,1,1,1,2,2,3,3,4,2,4,4,5,1,1,4,1,1,2,2,2,4,1,1,1,3,3,2,1,3,2,2,2,2,1, ,4,4,5, ,6,6,5,4,1, ,2,8,1, , ,2,2,2,2,APEX Business Global-IT Case Challenge Organising Committee, , , , ,2, , , , ,6,5,5,3,4,3,5,7,2,3,4,5,2,2,5,5,4,5,5,2,3,3,5,5,2,4,3,5,4,3,4,4,1,1,2,1,4,5,4,5,1,3,1,2,4,2,2,3,4,4,3,1,4,2,3,4,4,5,5,2,3,4,4,2,1,5,2.69230769230769,3,3,2,3,3,2,2,3,3,3,4,2,2,2,36.1,36,2,36.05,1,27,5,1,-1.98954109857097,-1.79940117544137,SMU
1994,2,3,2,4,2,2,3,2,4,3,2,2,3,3,2,3,2.83333333333333,0,4.11111111111111,2.55555555555556,71,3.05555555555556, ,2.63636363636364,1,4,3,2,4,4,2,2,4,2,2,2,4,2,2,2,3,5,2,5,2,3,2,2,3,5,3,6,2,2,2,2,5,2,4,2,3,10:48:04,2.6,2,2,3,5,4,5,5,5,4,2,4,3,1,2,3,1,3,4,1,17,5.16666666666667,2,2,2,2,2,2,2,2,2,1,3,2,2,4,2,4,1,2,4,2,2,2,4,2,4,3,3,5,3,3,3,4,5,2,4,3.46153846153846,2,2,2,1, ,4,4,5, ,7,7,5,4,1, ,2,4,1, , ,1,1, ,1, , , , , , , , , , ,6,5,5,5,5,5,3,6,1,3,3,4,4,4,2,2,2,2,2,1,2,2,4,1,3,2,3,3,3,2,3,3,3,2,2,3,3,3,3,2,2,2,2,1,4,2,4,4,2,2,2,2,2,2,4,4,3,3,2,3,3,3,2,4,2,3,2.46153846153846,2,3,3,2,2,2,3,3,2,3,2,4,2,3,36.4,36.6,2,36.5,1,26,5,1,-.842046440059085,-.129482132060693,SMU
1993,3,4,3,4,1,4,4,4,1,3,2,3,4,1,3,2,1.5,0,5,2.22222222222222,70,1, ,3,1,1,1,1,1,1,1,1,1,1,1,1,1,6,1,1,5,1,1,1,1,1,1,1,1,1,1,1,1,1,1,1,1,1,1,1,1,10:45:16,2.6,2,0,3,5,5,5,5,5,5,5,5,5,5,6,6,6,4,2,4,13,3.83333333333333,1,1,1,1,1,1,1,1,1,1,1,1,2,4,1,5,3,2,1,1,1,1,3,1,4,4,4,2,2,1,1,2,5,4,3,2.76923076923077,2,2,1,1, ,4,4,5, ,5,2,5,5,1, ,2,6,1, , ,1,1, ,1, , , , , , , , , , ,3,3,5,5,4,3,3,6,3,1,5,5,5,2,1,4,4,4,5,1,4,4,4,5,4,4,4,5,3,3,5,3,3,4,3,3,4,5,5,5,1,5,1,1,4,3,2,4,3,5,5,3,1,3,3,5,3,1,3,4,2,4,1,1,1,5,3.15384615384615,3,3,4,3,3,2,3,5,4,3,3,4,2,3,36.3,36.5,2,36.4,1,27,5,1,-2.09385879479933,-2.41788971002681,SMU
1994,3,2,2,2,3,2,3,2,2,2,2,3,3,2,3,3,4.22222222222222,0,4.11111111111111,2,71,4.38888888888889, ,2.27272727272727,1,4,3,4,5,6,6,4,5,3,5,3,3,3,3,6,4,4,5,5,4,5,4,3,5,4,4,4,5,5,5,4,4,5,5,3,5,10:44:57,2.8,2,1,3,4,4,4,4,4,5,4,4,4,3,3,5,2,3,2,2,12,4.66666666666667,3.18181818181818,4,4,4,3,4,2,2,2,3,3,4,2,2,2,2,2,2,2,2,2,2,3,4,4,4,4,2,2,3,3,4,3,4,4,3.38461538461538,2,2,2,1, ,4,2,5, ,4,3,4,3,2,1,2,6,1, , ,2,1, ,1, , , , , , , , , , ,3,5,5,5,5,5,5,7,2,2,2,4,3,3,3,2,3,4,3,2,2,3,4,4,4,4,3,3,4,3,4,4,3,2,3,2,4,3,2,4,2,3,2,2,4,4,3,2,4,3,4,3,4,2,4,4,2,2,2,3,2,2,3,3,2,4,2.69230769230769,3,3,3,2,2,3,3,3,2,3,3,4,2,3,36.9,37.8,2,37.35,1,26,5,1,.461924762795334,1.35489035094436,SMU
1994,2,2,4,3,2,3,2,2,4,2,1,2,2,4,4,2,2.72222222222222,0,4.88888888888889,2.44444444444444,71,3.83333333333333, ,2.45454545454545,1,2,2,2,5,3,2,6,2,1,3,1,2,2,7,2,3,3,1,2,3,4,4,2,6,6,5,3,1,2,5,2,7,5,5,4,3,10:43:46,2.8,1,1,3,5,5,5,5,5,5,5,5,4,2,2,5,2,6,6,5,24,5,3.09090909090909,5,4,4,2,5,2,2,2,1,2,5,3,3,2,2,2,2,2,2,4,2,4,2,5,5,5,1,4,2,3,3,5,4,4,3.61538461538462,2,2,2,1, ,4,4,5, ,1, ,6,6,2,8,2,4,1, , ,5,1, ,1, , , , , , , , , , ,3,7,6,6,2,6,6,6,4,2,2,4,4,4,1,1,5,5,2,2,1,1,5,5,2,5,1,3,3,2,3,3,2,2,3,1,5,5,2,4,3,4,4,1,2,4,2,2,5,5,3,4,2,2,4,4,4,2,4,4,4,2,4,4,3,5,2.38461538461538,2,1,3,1,3,3,3,3,1,5,1,4,2,3,36.4,36.3,2,36.35,1,26,5,1,-.946364136287439,.736401816358921,SMU
1994,2,2,1,2,4,2,4,4,1,2,2,1,1,1,5,2,4.55555555555556,0,4.77777777777778,4.77777777777778,70,3.27777777777778, ,2.36363636363636,1,6,6,4,7,3,7,2,6,2,6,2,6,3,5,3,7,4,3,2,2,5,4,3,4,6,3,2,1,2,2,2,7,5,5,2,2,10:42:27,2,2,0,3,5,4,4,5,5,5,5,5,5,5,6,6,6,6,4,7,17,6.66666666666667,4.90909090909091,5,5,5,5,5,5,5,5,5,4,5,5,5,4,5,5,5,4,5,5,1,2,2,3,2,2,1,4,2,1,3,2,2,2,2.15384615384615,2,2,2,1, ,4,4,1, ,3,3,7,4,1, ,2,7,3,1,3,1,1, ,1, , , , , , , , , , ,6,7,7,7,6,7,7,7,2,2,4,4,2,5,1,2,5,4,4,1,5,5,1,4,5,5,5,5,3,5,5,5,1,1,1,2,2,2,4,4,4,4,5,2,5,2,4,1,4,2,4,5,4,1,4,5,5,5,5,1,2,5,4,4,2,4,2.92307692307692,4,4,3,2,2,3,3,3,3,1,3,5,3,4,36.5,36.6,2,36.55,1,26,5,1,.774877851480395,.117913281773483,SMU
1993,2,3,2,3,2,3,4,2,2,2,2,3,2,2,3,2,3.16666666666667,0,5,3.77777777777778,70,3.16666666666667, ,2.45454545454545,1,3,3,3,3,4,4,3,3,2,3,3,3,3,3,3,5,3,3,3,3,3,3,3,3,3,3,3,3,4,5,3,3,3,3,3,3,10:40:59,2.4,2,0,3,5,5,5,5,5,5,5,5,5,5,4,4,4,4,4,3,11,4.5,3.45454545454545,3,3,3,4,3,3,4,4,4,4,3,4,4,4,4,4,3,3,4,4,1,3,3,4,4,3,2,3,4,3,3,4,4,2,3.23076923076923,2,2,2,1, ,4,4,5, ,1, ,5,1,1, ,2,8,3,1,3,1,1, ,1, , , , , , , , , , ,3,5,5,5,5,4,4,6,2,3,3,4,2,4,3,2,2,5,3,2,4,4,4,3,3,4,4,4,4,3,4,4,2,2,3,1,4,4,4,4,3,3,2,2,3,4,2,2,2,2,4,4,4,2,3,4,4,3,3,2,3,3,3,3,2,4,2.84615384615385,3,4,3,2,2,3,2,3,3,2,4,5,3,3,36.5,36.8,2,36.65,1,26,5,1,-.529093351374025,-.00578442514360494,SMU
1995,2,2,1,2,2,1,4,2,1,1,1,4,5,4,4,4,4.44444444444444,0,4.77777777777778,4,70,2.5,3,1.72727272727273,1,4,5,6,5,6,4,4,7,4,5,5,2,4,2,3,6,6,2,2,1,2,2,3,2,3,4,3,3,3,3,3,3,2,2,1,3,10:36:48,4.2,2,2,3,5,5,5,5,5,4,4,5,5,4,6,5,3,2,1,4,19,5.16666666666667,4.18181818181818,4,5,5,4,5,2,5,4,2,5,5,5,4,2,5,5,1,4,5,5,2,2,1,2,1,2,2,1,3,1,3,3,3,4,2.15384615384615,2,1,2,1, ,4,4,5, ,1, ,8,8,2,1,2,8,1, , ,1,2,3,2,Even organising committee, , , , ,1, , , , ,5,5,3,6,6,6,4,7,3,2,5,5,2,2,2,2,4,5,5,1,4,5,3,5,4,5,5,4,2,4,3,2,2,2,3,1,5,5,4,5,2,5,1,1,4,2,2,2,3,5,4,4,4,3,4,4,4,4,2,1,3,4,2,3,1,2,3.30769230769231,3,3,4,4,3,4,2,4,4,2,3,4,3,4,35.5,36.5,2,36,1,26,5,1,.670560155252041,-.74797066664613,SMU
1996,3,4,4,2,4,2,4,4,4,2,4,2,4,2,3,2,3.72222222222222,0,5,4,70,2.5, ,3.36363636363636,1,5,5,3,4,4,3,5,3,2,2,4,2,4,3,3,6,6,3,3,6,3,2,2,3,4,2,2,2,2,2,1,1,2,2,3,3,10:36:12,2.6,2,1,3,5,5,5,5,5,5,5,5,5,3,4,5,2,2,2,2,19,6,3.90909090909091,4,4,4,4,4,4,4,4,4,3,4,4,4,3,4,4,5,3,5,4,1,3,3,3,3,3,3,4,3,2,3,3,3,3,3,2,2,2,1, ,4,4,5, ,8,1,8,4,2,1,2,8,1, , ,1,1, ,2,CCA club,Catholic society, , , ,4,3, , , ,5,7,6,6,6,6,6,7,2,2,4,5,3,3,3,3,4,4,4,2,3,4,4,4,4,4,4,4,4,4,4,3,3,3,2,1,4,4,4,4,4,4,2,2,4,4,3,4,4,4,4,4,4,3,4,4,4,4,4,4,4,4,4,3,1,3,3.07692307692308,3,3,4,3,3,3,3,3,3,3,3,3,3,3,36.7,36.2,2,36.45,1,26,5,1,-.00750487023225672,-.74797066664613,SMU
1993,1,2,2,2,2,1,1,2,1,2,1,2,2,2,3,4,1.77777777777778,0,4.77777777777778,2.55555555555556,71,1.83333333333333,2,1.54545454545455,1,3,2,1,1,4,1,2,1,1,1,1,2,2,2,1,4,2,1,1,1,2,1,1,1,4,1,1,2,2,2,1,1,5,3,1,3,10:35:40,2.6,2,0,3,5,5,5,4,4,5,5,5,5,5,7,3,3,2,6,5,17,5.66666666666667,2.54545454545455,4,4,4,2,4,1,1,2,1,2,3,4,4,2,4,3,1,1,2,2,1,4,2,3,2,1,1,2,1,1,4,2,3,4,2.30769230769231,1,1,2,1, ,4,4,5, ,8,1,5,2,2,1,2,8,1, , ,1,1, ,2,BONDUE, , , , ,15, , , , ,6,7,5,7,7,2,5,7,2,5,4,5,5,5,1,5,2,5,2,2,4,4,4,2,5,4,4,5,3,4,4,3,2,2,2,1,5,5,2,5,4,1,2,1,4,4,4,2,4,4,4,3,2,2,2,4,4,4,4,3,3,2,3,4,2,3,2.46153846153846,3,4,3,3,2,1,2,2,2,3,2,5,2,3,36.6,36.8,1,36.7,1,26,5,1,-1.83306455422844,-1.49015690814866,SMU
1993,4,4,4,2,4,4,4,4,2,4,4,2,4,2,4,2,4.38888888888889,0,5,2,70,3.33333333333333, ,3.63636363636364,1,5,5,3,5,3,3,5,4,3,5,3,5,5,5,5,5,5,5,4,3,5,3,5,3,3,3,3,3,3,3,3,5,3,2,3,3,10:35:02,2.8,2,3,3,5,5,5,5,5,5,5,5,5,5,3,5,1,3,3,3,25,3,2,2,2,2,2,2,2,2,2,2,2,2,2,2,2,2,2,2,2,2,2,1,2,2,3,4,4,2,2,3,3,3,2,2,4,2.76923076923077,2,2,2,1, ,4,4,5, ,1, ,4,4,1, ,2,6,1, , ,1,2,8,2,AIESEC, , , , ,7, , , , ,4,2,2,2,4,4,4,6,3,4,2,4,2,2,5,4,4,4,4,4,4,4,4,4,3,4,4,4,4,4,4,4,3,3,4,2,2,4,4,4,4,4,3,3,4,2,4,4,4,2,4,4,4,4,4,4,4,4,4,4,4,4,4,4,2,4,2.84615384615385,4,4,3,2,2,3,2,4,2,2,3,4,2,4,36.7,36.6,2,36.65,1,27,5,1,.618401307137865,.179762135232027,SMU
1995,3,3,2,3,3,3,3,3,3,3,3,3,3,3,4,2,3.33333333333333,2,4,3.55555555555556,70,3.55555555555556, ,2.90909090909091,1,3,3,3,4,3,3,3,3,5,4,3,3,3,3,3,3,4,4,4,4,3,4,3,4,4,3,3,3,4,3,4,3,3,4,4,4,10:32:00,3,2,0,3,4,4,4,4,4,4,4,4,4,3,3,4,2,2,2,2,21,3.83333333333333,3,3,3,3,3,3,3,3,3,3,3,3,3,4,3,4,3,3,4,4,4,2,3,4,3,4,3,3,3,3,3,3,3,3,2,3.07692307692308,2,2,2,1, ,4,4,5, ,5,5,8,3,2,5,2,5,1, , ,3,1, ,1, , , , , , , , , , ,3,4,4,4,4,4,4,7,3,4,4,4,3,4,4,4,4,4,3,3,3,4,4,4,4,3,4,3,4,3,3,4,3,2,3,4,4,3,3,4,3,3,4,3,4,3,4,2,4,4,4,4,3,3,4,4,4,4,4,3,3,3,3,3,4,4,3.07692307692308,3,3,3,3,3,3,3,3,3,3,4,3,3,3,36.1,36.5,2,36.3,1,26,5,1,-.372616807031494,.427157549066201,SMU
1995,2,4,2,3,2,3,3,3,2,2,2,3,3,2,4,2,2.88888888888889,0,4.88888888888889,3.33333333333333,70,1.5, ,2.54545454545455,1,5,5,4,3,5,4,2,2,2,1,2,5,1,3,2,2,2,2,2,1,2,1,2,3,1,2,2,1,1,1,1,2,1,1,1,2,10:30:22,2.8,2,0,3,5,5,5,5,5,5,4,5,5,3,4,5,3,3,4,4,19,4.83333333333333,1.81818181818182,2,2,2,2,2,2,1,3,1,1,2,3,4,2,5,4,4,4,2,2,1,3,3,4,5,4,3,4,2,4,4,4,4,4,3.69230769230769,2,2,2,1, ,4,4,5, ,3,1,6,5,1, ,2,8,1, , ,1,1, ,2,Dance CCA, , , , ,7, , , , ,3,7,5,5,5,4,5,6,3,1,2,4,4,5,2,3,5,4,2,1,4,4,4,5,3,5,5,5,5,4,5,5,1,1,3,2,4,4,4,3,2,3,4,3,4,4,3,3,4,4,4,4,4,2,4,4,5,5,4,1,4,4,4,3,2,5,2.69230769230769,2,5,3,2,2,2,4,3,2,2,5,5,1,2,36.7,36.9,2,36.8,1,26,5,1,-.789887591944908,-1.86125002889992,SMU
1995,2,2,2,2,3,3,2,2,2,3,3,1,2,2,4,2,3.66666666666667,0,5,3.44444444444444,70,4.33333333333333, ,2.36363636363636,1,4,4,5,4,4,5,3,3,4,3,4,3,4,3,3,3,4,3,5,5,5,5,3,4,4,4,4,4,4,5,4,5,4,5,4,4,10:30:02,2.2,2,2,3,5,5,5,5,5,5,5,5,5,4,6,5,6,6,6,6,21,6,2.27272727272727,2,3,3,3,2,2,2,2,2,2,2,3,4,3,4,3,3,5,2,4,2,3,4,2,2,4,3,4,3,2,4,3,4,4,3.23076923076923,2,2,2,1, ,4,4,5, ,8,8,6,6,2,1,2,8,1, , ,1,1, ,1, , , , , , , , , , ,6,6,6,6,6,6,5,7,3,3,4,4,3,3,5,4,4,2,3,2,4,4,4,3,3,5,4,4,4,4,3,4,3,2,3,2,4,4,3,4,3,2,2,2,4,3,3,2,4,4,3,4,3,3,4,4,4,4,3,3,5,3,4,4,2,4,3.38461538461538,3,4,4,3,3,2,3,4,3,3,4,5,3,5,36.2,36.5,2,36.35,1,27,5,1,-.0596637183464337,1.29304149748581,SMU
1993,2,2,2,2,2,2,2,2,2,2,2,4,4,2,4,4,3.22222222222222,4,3.44444444444444,3.22222222222222,79,3,5,2,1,3,3,3,3,3,3,3,3,3,3,3,3,3,3,3,3,5,5,3,3,3,3,3,3,3,3,3,3,3,3,3,3,3,3,3,3,10:28:58,3.6,2,0,3,4,4,4,3,4,2,2,4,4,1,2,2,2,2,2,1,8,4,2.36363636363636,4,4,2,2,2,2,2,2,2,2,2,2,4,2,4,4,4,3,2,4,1,2,2,2,1,3,1,2,2,2,3,3,4,3,2.30769230769231,1,1,1,1, ,4,1,4,1,2,1,4,3,1, ,1, ,1, , ,1,1, ,1, , , , , , , , , , ,3,5,5,5,3,3,3,6,0,2,4,4,2,2,4,4,4,4,4,2,4,4,4,4,2,4,4,4,4,4,4,4,2,2,2,2,4,4,4,4,2,2,2,2,2,4,2,2,2,2,2,2,2,4,3,4,4,4,2,4,4,2,2,2,2,2,3.23076923076923,3,3,4,3,4,3,3,3,3,4,3,4,3,3,35.7,35.5,2,35.6,1,26,5,1,-.476934503259848,-.191330985519236,SMU
1995,4,4,2,3,4,3,4,2,2,4,2,2,4,2,4,3,3.83333333333333,0,3,2.88888888888889,70,3.77777777777778, ,3.09090909090909,1,6,1,2,6,2,6,5,5,5,2,6,2,2,2,3,5,7,2,6,2,6,2,6,6,6,2,2,2,2,4,2,4,5,6,3,2,10:27:05,3,2,2,3,4,2,3,3,2,4,3,3,3,3,3,4,3,3,3,3,31,4.66666666666667,3.90909090909091,4,4,4,4,4,4,4,4,3,4,4,2,4,2,4,4,3,1,2,4,1,1,2,4,2,3,1,1,2,1,2,1,5,1,2,2,2,2,1, ,4,4,5, ,4,3,6,6,2,3,2,8,1, , ,1,1, ,2,Muslim Society,Tax Group,Study Buddies,Company Law Group,DA Group,5,3,2,2,1,3,6,6,5,5,3,3,8,3,2,4,4,4,4,2,1,3,4,2,2,2,2,4,2,3,4,4,2,1,4,4,3,2,2,2,2,4,4,4,4,3,2,2,2,3,4,2,2,4,4,2,4,2,2,3,4,4,4,3,2,4,4,3,3,4,4,3.30769230769231,4,3,3,3,3,2,4,3,3,4,3,5,3,5,37,37,2,37,1,27,5,1,.0968128259960969,.674552962900376,SMU
1995,4,3,2,2,4,4,4,4,3,4,4,2,2,2,4,3,4.83333333333333,0,4,4,70,3.11111111111111, ,3.45454545454545,1,5,5,5,5,6,5,4,5,5,6,6,6,3,3,5,6,4,3,4,3,5,2,4,6,4,2,2,2,2,2,3,4,2,2,4,3,10:25:37,2.6,2,2,3,4,4,4,4,4,4,4,4,4,1,6,5,4,2,2,3,24,5.83333333333333,3.90909090909091,4,4,4,4,4,4,4,4,4,4,3,4,4,3,4,4,4,4,5,4,1,2,4,4,4,4,3,3,3,2,4,2,3,4,3.23076923076923,2,2,2,1, ,4,4,5, ,8,4,8,8,2,4,2,8,1, , ,3,1, ,1, , , , , , , , , , ,7,6,6,5,6,5,6,7,3,4,4,4,4,3,3,4,3,5,2,3,3,4,4,5,4,4,4,5,5,3,4,4,3,3,4,2,4,4,4,3,3,3,2,1,4,4,1,3,4,5,3,4,4,2,4,4,4,4,5,1,5,5,4,4,3,4,3.23076923076923,4,4,4,3,3,3,2,4,3,3,4,3,2,3,35.4,35.4,2,35.4,1,26,5,1,1.03567209205128,-.0676332786021485,SMU
1995,4,5,3,5,2,3,4,5,2,4,1,1,1,1,4,2,4.16666666666667,0,4.11111111111111,3.55555555555556,70,4.33333333333333,3,3.45454545454545,1,5,5,4,5,5,5,3,5,5,3,6,2,5,2,5,2,6,2,6,5,5,4,5,3,5,4,2,4,3,6,4,5,5,5,3,4,10:25:27,1.8,2,1,3,5,4,4,4,4,4,4,4,4,5,6,6,2,2,2,2,17,6,3.36363636363636,5,4,5,2,2,2,4,4,2,4,3,3,4,2,5,3,3,4,4,4,2,2,1,3,1,2,1,1,1,2,2,1,3,1,1.61538461538462,2,1,2,1, ,4,4,5, ,4,1,5,5,2,4,2,8,1, , ,2,1, ,1, , , , , , , , , , ,7,6,6,6,6,5,5,7,3,2,5,5,2,1,2,4,2,5,4,2,2,2,4,4,2,4,2,3,3,4,4,3,3,3,3,1,4,5,5,5,2,4,2,2,4,4,2,2,2,2,2,3,2,2,4,4,2,4,2,3,2,4,2,2,1,3,3.84615384615385,4,4,5,1,4,4,4,4,3,4,4,5,4,5,36.33,36.74,2,36.535,1,26,5,1,.409765914681158,1.29304149748581,SMU
1994,2,2,3,2,2,2,2,2,2,2,2,2,4,2,4,3,3.83333333333333,0,5,4,70,3.55555555555556, ,2.09090909090909,1,3,3,3,3,3,5,3,5,5,4,5,3,3,3,5,4,5,4,5,3,4,3,3,5,4,3,3,3,3,3,3,5,3,4,3,4,10:24:49,3,2,5,3,5,5,5,5,5,5,5,5,5,4,4,6,3,4,3,3,19,2.66666666666667,3.27272727272727,3,3,3,4,3,3,3,4,3,4,3,4,4,3,4,4,4,5,4,4,2,2,2,4,2,3,3,3,3,3,3,4,3,3,2.92307692307692,2,2,2,1, ,4,4,5, ,8,8,5,5,1, ,2,2,1, , ,1,1, ,1, , , , , , , , , , ,1,3,3,3,3,3,3,6,2,3,3,4,2,3,3,3,3,4,4,2,3,3,3,3,3,4,3,3,4,3,3,4,3,2,3,2,4,4,4,4,3,2,2,2,4,4,2,4,4,3,3,3,2,4,3,4,3,3,3,4,2,3,2,2,4,2,2.76923076923077,3,3,5,2,3,2,2,3,3,2,3,4,2,3,36.6,36.8,2,36.7,1,26,5,1,.0968128259960969,.427157549066201,SMU
1990,4,4,4,4,4,4,4,4,3,4,4,2,3,2,3,2,4.88888888888889,0,4.11111111111111,4,79,3.77777777777778, ,3.90909090909091,1,5,5,5,6,5,5,5,5,3,5,4,5,5,6,4,5,5,5,5,4,5,3,4,5,5,4,4,3,3,3,4,4,3,3,3,3,10:24:47,2.4,2,0,3,4,4,4,4,4,5,4,4,4,4,3,4,5,5,5,6,22,4.5,3.63636363636364,4,4,4,4,3,4,3,4,3,3,4,4,4,4,4,4,4,4,4,4,2,2,1,2,4,3,2,2,2,2,1,3,2,2,2.15384615384615,1,2,2,1, ,4,4,5, ,2,2,3,3,2,1,2,3,2,1,1,2,2,2,2,Canoe Club, , , , ,5, , , , ,4,5,4,5,5,4,4,9,1,3,4,4,3,3,4,5,4,5,5,4,3,3,4,5,4,4,4,4,4,4,4,4,3,3,3,1,4,4,3,4,2,4,4,4,4,3,4,3,3,4,4,4,4,4,4,4,4,4,4,4,4,4,4,4,4,4,3.30769230769231,5,3,4,3,3,2,3,4,3,3,3,5,3,4,36.1,36.4,2,36.25,1,26,5,1,1.08783094016546,.674552962900376,SMU
1994,3,4,3,2,4,4,4,2,2,4,2,2,4,1,3,1,4.22222222222222,0,5,4,70,2.72222222222222, ,3.09090909090909,1,5,5,5,5,6,3,3,5,3,2,2,5,3,5,5,5,6,3,5,3,3,3,2,2,2,3,3,3,2,3,3,2,2,3,2,3,10:23:41,2.2,2,0,3,5,5,5,5,5,5,5,5,5,3,3,5,3,2,2,3,23,4.66666666666667,3.18181818181818,4,4,4,4,3,2,2,3,3,2,4,4,4,4,4,4,4,4,4,4,1,1,4,3,3,4,2,4,2,2,4,2,2,2,2.69230769230769,1,2,2,1, ,4,4,5, ,3,1,8,8,2,8,2,8,1, , ,1,1, ,1, , , , , , , , , , ,4,5,5,5,5,4,4,7,4,4,4,5,1,2,3,3,3,4,4,2,3,4,2,3,4,5,4,3,4,5,4,4,2,2,3,1,4,5,3,5,3,1,3,3,4,4,3,2,3,4,3,4,4,3,3,4,4,4,2,2,4,3,3,3,3,2,2.69230769230769,4,3,2,3,3,3,3,2,3,3,3,5,1,2,36.1,36.6,2,36.35,1,26,5,1,.461924762795334,-.500575252811955,SMU
1996,4,4,2,4,4,3,4,4,4,3,4,3,4,2,4,2,3.55555555555556,0,4,3.77777777777778,70,3, ,3.63636363636364,1,4,5,2,4,5,4,3,3,4,2,5,3,2,2,4,5,5,2,4,3,3,2,2,3,3,3,3,3,3,3,4,3,3,3,3,3,10:19:23,3,2,0,3,4,4,4,4,4,4,4,4,4,4,5,7,5,5,5,5,17,5.83333333333333,3.45454545454545,4,4,4,4,3,3,3,3,3,3,4,4,4,3,4,4,4,4,3,4,1,2,3,3,3,4,2,2,3,2,3,4,4,3,2.92307692307692,2,2,2,1, ,4,4,5, ,3,3,7,7,1, ,2,8,1, , ,2,1, ,1, , , , , , , , , , ,5,6,6,6,6,6,6,6,3,2,4,4,3,4,3,4,4,4,4,1,3,3,3,4,4,4,3,4,4,4,4,4,2,2,4,2,3,4,3,4,2,4,2,2,3,4,2,2,4,4,3,4,4,3,4,4,4,4,4,3,4,3,4,3,2,4,3.07692307692308,4,5,4,3,2,2,2,3,3,3,4,4,2,3,36.6,36.6,2,36.6,1,26,5,1,-.163981414574787,-.191330985519236,SMU
1995,4,4,2,4,4,2,4,4,4,2,2,3,4,3,2,4,3.72222222222222,0,4,2.55555555555556,70,3.22222222222222, ,3.27272727272727,1,5,3,5,5,4,2,3,5,2,4,4,3,5,3,3,3,5,3,6,3,3,3,3,3,4,2,3,3,2,3,2,6,2,3,4,3,10:17:05,3.2,2,1,3,4,4,4,4,4,4,4,4,4,3,3,3,2,2,3,1,12,4.83333333333333,3.09090909090909,4,4,4,4,4,2,2,2,2,2,4,2,4,2,2,3,2,2,2,4,2,2,3,4,2,2,2,2,2,3,3,2,4,2,2.53846153846154,2,2,2,1, ,4,4,5, ,4,2,7,4,1, ,2,8,1, , ,1,1, ,1, , , , , , , , , , ,3,6,6,6,4,4,4,6,2,3,2,4,3,2,2,4,4,4,4,2,2,2,4,4,4,4,2,4,3,3,2,2,2,2,2,2,3,4,2,4,2,4,2,2,4,2,2,2,2,3,4,4,2,3,3,4,2,2,2,2,2,4,2,4,2,4,3.15384615384615,3,3,4,2,2,2,4,4,3,4,3,4,3,4,36.7,37,2,36.85,1,26,5,1,-.00750487023225672,.0560644283149391,SMU
1996,2,2,2,2,2,2,2,2,3,2,2,2,2,2,2,2,4,0,3.44444444444444,3.55555555555556,71,3.88888888888889, ,2.09090909090909,1,4,4,4,4,4,4,4,4,4,4,4,4,4,4,4,4,4,4,4,4,2,4,4,4,4,4,4,4,4,4,4,4,4,4,4,4,10:16:02,2,2,2,3,4,4,4,4,4,2,2,4,3,3,2,5,1,1,1,1,11,4,3,5,2,2,4,4,2,2,2,4,2,4,4,4,2,4,4,4,4,2,4,2,3,5,5,4,2,1,4,4,4,4,3,4,4,3.61538461538462,1,2,2,1, ,4,4,5, ,3,2,6,2,1, ,2,8,1, , ,2,1, ,1, , , , , , , , , , ,3,5,4,5,3,4,4,6,2,3,3,4,2,4,2,3,2,4,3,3,3,3,2,2,3,1,3,4,4,4,4,4,3,3,2,3,4,4,4,2,2,4,2,4,4,4,2,2,2,4,4,2,4,2,2,4,3,3,4,4,4,3,4,3,4,3,2.15384615384615,2,3,2,2,2,2,2,2,2,2,3,4,2,2,36.0555555555556,36,2,36.0277777777778,1,26,5,1,.253289370338627,.798250669817464,SMU
1994,5,5,4,3,4,4,5,5,5,3,3,2,4,2,3,1,3.22222222222222,0,4.77777777777778,2.44444444444444,70,4.72222222222222, ,4.18181818181818,2,4,4,3,3,3,3,2,3,3,3,6,3,4,3,3,3,2,3,7,5,7,5,3,4,4,2,4,5,5,5,4,5,5,5,5,5,10:13:07,2.4,1,0,3,4,5,5,5,5,5,4,5,5,1,2,1,2,2,2,2,13,3.16666666666667,3.90909090909091,4,4,4,4,4,4,4,4,4,3,4,2,2,3,3,3,2,2,2,3,2,2,3,1,1,3,3,3,2,2,2,2,1,2,2.07692307692308,2,2,2,1, ,4,3,5, ,4,3,6,3,1, ,2,4,1, , ,3,1, ,1, , , , , , , , , , ,3,4,3,3,3,3,4,6,1,3,4,4,1,3,4,4,3,4,4,4,4,4,5,5,4,5,3,4,4,5,4,4,4,4,5,1,5,4,3,5,2,3,1,1,3,4,4,2,3,4,4,1,1,4,4,4,3,3,3,3,3,2,3,4,1,4,3.53846153846154,3,3,4,3,3,4,4,3,4,4,3,2,4,4,39.3,39.3,2,39.3,1,26,5,1,-.476934503259848,1.72598347169562,SMU
1992,1,3,1,3,1,1,2,2,2,2,2,2,2,2,1,2,3.72222222222222,0,3.55555555555556,2.88888888888889,79,3.33333333333333, ,1.81818181818182,1,5,4,3,5,5,4,2,6,3,2,4,4,4,4,3,2,5,2,5,3,3,3,4,3,2,4,3,4,2,4,3,3,3,4,3,4,10:12:58,1.8,2,1,3,4,4,4,4,4,4,2,3,3,3,4,4,1,2,2,3,22,3.5,2.90909090909091,4,4,4,4,2,1,2,4,1,1,5,2,4,1,4,4,2,1,4,4,1,3,4,4,3,4,1,3,4,4,4,4,4,3,3.46153846153846,1,2,2,1, ,4,4,5, ,8,3,8,7,1, ,2,8,1, , ,1,1, ,2,Dance Group, , , , ,6, , , , ,3,5,3,5,3,2,3,6,3,2,2,4,4,2,2,2,4,3,4,5,4,4,4,4,4,4,4,4,3,2,4,3,3,4,2,3,5,5,5,3,2,4,4,2,3,2,4,3,2,3,4,3,3,4,4,4,2,3,2,2,2,3,3,3,2,4,2,2,2,2,3,1,2,1,3,1,2,2,3,3,2,35.8,35.8,4,35.8,1,26,5,1,-.00750487023225672,.179762135232027,SMU
1995,2,2,1,2,1,1,2,2,2,2,2,2,1,3,2,1,5.33333333333333,0,3.66666666666667,1.77777777777778,70,2.83333333333333, ,1.72727272727273,1,5,5,7,7,7,6,1,7,5,2,6,5,6,5,3,7,5,7,4,3,3,2,2,2,3,2,2,3,3,3,3,2,3,3,2,6,10:12:26,1.8,2,2,3,5,4,4,5,2,3,3,4,3,4,6,4,1,1,1,3,11,6.16666666666667,1.18181818181818,1,1,1,1,1,1,2,2,1,1,1,2,2,1,2,4,1,1,1,2,1,2,1,4,3,2,1,1,1,2,4,5,3,2,2.38461538461538,2,2,2,1, ,4,4,5, ,2,1,4,3,2,1,2,4,1, , ,1,1, ,1, , , , , , , , , , ,5,7,6,6,7,6,6,7,1,4,5,5,1,1,4,4,2,5,5,4,4,5,3,4,2,5,5,5,2,3,4,1,1,4,2,1,5,5,2,5,1,4,4,1,4,2,5,2,4,2,5,2,4,4,3,4,4,5,3,2,4,2,1,1,1,1,2.38461538461538,2,3,3,1,2,2,3,3,2,3,2,5,2,3,36.4,36.4,2,36.4,1,27,5,1,1.50510172507887,-.376877545894867,SMU
1991,2,2,3,2,2,3,4,2,2,2,2,2,2,2,4,2,2.44444444444444,0,4,4,71,2, ,2.36363636363636,1,2,2,6,2,2,2,2,2,6,2,2,2,2,2,2,2,2,2,2,2,2,2,2,2,2,2,2,2,2,2,2,2,2,2,2,2,10:11:59,2.4,2,0,3,4,4,4,4,4,4,4,4,4,3,4,5,3,2,3,3,17,4.5,4,4,4,4,4,4,4,4,4,4,4,4,4,4,4,4,4,4,4,4,4,1,2,4,4,2,3,2,4,4,4,4,2,4,4,3.30769230769231,1,2,2,1, ,4,4,5, ,2,2,8,8,2,1,2,8,1, , ,1,1, ,1, , , , , , , , , , ,4,5,5,5,4,4,4,7,3,4,4,4,4,4,4,4,4,4,4,2,4,4,4,4,4,4,4,4,4,4,4,4,2,2,3,2,4,4,2,4,4,4,2,2,4,3,4,3,4,3,4,4,4,4,4,4,4,4,4,2,4,4,4,4,4,2,2.46153846153846,3,3,3,2,2,2,2,3,2,2,3,4,2,3,34.6,35.7,2,35.15,1,26,5,1,-1.20715837685832,-1.30461034777302,SMU
1993,2,2,1,2,1,1,2,2,3,2,2,2,2,2,3,2,2.83333333333333,0,4.11111111111111,2.44444444444444,71,3.44444444444444, ,1.81818181818182,1,2,2,2,2,2,2,2,5,6,2,6,2,6,2,2,2,2,2,2,6,2,3,2,2,2,3,6,3,3,6,2,2,3,6,6,3,10:11:42,2.2,2,0,3,4,4,4,4,4,5,4,4,4,5,6,3,2,3,2,2,13,4.66666666666667,2,2,2,2,2,2,2,2,2,2,2,2,2,4,2,3,2,2,2,3,2,2,5,5,4,4,1,5,1,3,5,5,5,5,3,3.92307692307692,1,2,3,1, ,4,4,5, ,6,1,8,5,1, ,2,8,1, , ,2,1, ,1, , , , , , , , , , ,4,6,5,4,5,4,3,6,3,3,3,4,3,5,3,3,4,4,3,3,4,4,5,3,4,4,3,4,4,4,4,4,2,2,2,1,3,4,4,4,3,3,2,2,2,4,4,2,4,3,3,4,3,4,4,4,4,4,4,4,3,3,3,3,2,3,1.84615384615385,2,3,3,1,2,1,1,2,1,1,3,4,2,2,36.2,36.4,2,36.3,1,26,5,1,-.842046440059085,.303459842149114,SMU
1994,2,2,1,2,4,2,3,2,2,2,2,2,2,2,3,3,1.72222222222222,0,4.11111111111111,3.33333333333333,70,2.05555555555556, ,2.18181818181818,2,1,2,1,2,2,1,2,1,2,1,2,1,2,2,1,2,4,2,1,2,3,2,1,3,2,2,3,2,2,1,2,2,3,3,2,1,10:10:32,2.4,2,2,3,4,4,4,4,4,5,4,4,4,5,7,5,2,3,5,6,20,6,3.36363636363636,4,4,4,4,4,2,2,2,3,4,4,4,4,2,4,4,2,3,4,3,1,1,2,4,2,3,2,2,2,2,2,2,2,2,2.15384615384615,2,2,2,1, ,4,4,5, ,5,5,4,4,2,5,2,8,1, , ,1,1, ,1, , , , , , , , , , ,7,6,5,6,6,6,5,7,3,1,4,4,4,4,4,2,4,4,4,1,3,4,4,3,4,4,4,4,3,4,5,5,2,2,2,2,3,4,4,3,2,2,2,2,2,2,3,3,2,2,4,4,4,2,4,4,4,4,4,2,4,4,4,4,2,5,3.61538461538462,4,4,4,2,4,4,3,4,3,4,4,5,3,4,35.7,36,2,35.85,1,26,5,1,-1.88522340234262,-1.24276149431448,SMU
1987,1,1,1,1,1,1,1,1,1,1,1,1,1,2,5,3,1.05555555555556,0,4,1,70,1.33333333333333, ,1,1,1,1,1,1,1,1,1,1,1,1,1,1,1,2,1,1,1,1,1,1,1,1,1,1,1,1,7,1,1,1,1,1,1,1,1,1,10:04:08,2.4,2, ,3,4,4,4,4,4,4,4,4,4,3,2,1,2,2,2,2,36,6.83333333333333,1,1,1,1,1,1,1,1,1,1,1,1,1,1,1,1,1,1,1,1,1,1,5,5,5,5,5,5,3,5,5,5,5,5,5,4.84615384615385,1,2,2,1, ,4,4,4,4,5,2,8,4,2,8,2,8,1, , ,3,2,5,2,SWC,DBS, , , ,3,2, , , ,6,7,7,7,7,7,7,9,4,3,5,5,1,3,5,3,3,5,5,3,4,4,4,4,4,4,3,4,3,4,4,4,2,2,2,1,5,5,3,5,2,1,4,2,5,5,5,1,3,2,4,3,4,4,4,4,4,3,2,3,4,4,1,1,1,3,1.69230769230769,3,2,3,1,1,1,1,2,1,1,2,4,2,2,36.4,36.6,2,36.5,1,27,5,1,-2.51112957971274,-2.04679658927555,SMU
1992,2,2,2,2,2,2,2,2,2,2,2,2,3,2,3,2,2.22222222222222,0,3.77777777777778,2.77777777777778,71,2.05555555555556, ,2,1,2,2,2,2,4,2,2,2,2,2,2,2,2,4,2,3,2,1,1,2,2,2,2,2,3,2,2,2,2,2,2,3,2,2,2,2,9:58:17,2.4,2,1,3,4,4,4,4,4,4,4,3,3,5,4,2,2,2,2,4,22,2.33333333333333,2.36363636363636,2,2,2,4,2,2,2,2,4,2,2,3,4,2,4,4,1,1,2,4,1,3,3,3,2,4,3,2,4,3,4,3,4,4,3.23076923076923,1,2,2,1, ,4,1,2,1,3,3,8,8,1, ,2,8,1, , ,1,1, ,2,Peer Helpers, , , , ,20, , , , ,2,2,2,4,2,2,2,7,3,2,4,4,2,2,2,3,3,5,5,2,2,2,5,5,3,3,2,4,3,2,4,3,2,3,3,2,4,4,4,4,2,2,2,2,4,3,3,2,4,4,4,2,3,3,3,4,3,3,3,2,4,2,4,3,2,3,2.61538461538462,3,3,3,2,2,3,3,3,2,2,3,3,2,3,36.4,36.4,2,36.4,1,26,5,1,-1.41579376931503,-1.24276149431448,SMU
1995,2,2,3,2,2,2,2,3,3,2,2,3,4,2,4,2,3.88888888888889,0,5,4,70,4, ,2.27272727272727,1,4,4,4,4,4,4,4,4,4,4,2,4,4,4,4,4,4,4,4,4,4,4,4,4,4,4,4,4,4,4,4,4,4,4,4,4,9:56:46,3,2,1,3,5,5,5,5,5,5,5,5,5,5,7,4,1,1,1,7,43,5.16666666666667,3.54545454545455,4,4,4,4,4,2,3,4,4,2,4,4,4,4,4,4,4,4,4,4,2,2,2,2,3,4,2,3,2,2,2,2,4,3,2.53846153846154,2,2,2,1, ,4,4,5, ,2,2,8,8,2,1,2,8,1, , ,1,1, ,2,Project Group Mates,CCA Mates,Exco members,Ex school mates,Dance Mates,5,20,6,6,2,6,5,5,5,5,5,5,8,3,3,4,4,2,2,2,4,4,4,4,2,3,3,5,5,2,2,4,3,4,3,3,4,3,2,3,2,4,4,4,4,4,3,3,2,2,2,2,3,3,4,2,4,2,2,4,4,3,2,3,2,4,2,3,4,3,4,3.46153846153846,4,4,4,3,3,3,3,4,3,3,4,4,3,4,35.9,36.2,2,36.05,1,26,5,1,.148971674110273,.921948376734552,SMU
1993,4,4,2,4,4,2,4,3,2,3,3,2,2,2,3,2,4,0,3.44444444444444,3.55555555555556,71,2.72222222222222, ,3.18181818181818,1,5,6,5,6,4,3,2,3,2,6,6,2,5,2,4,6,2,3,5,3,3,2,2,2,4,2,5,2,2,1,2,4,2,3,2,3,9:50:43,2.2,2,0,3,4,2,4,4,3,4,2,4,4,4,3,6,2,4,4,4,22,5,3.27272727272727,4,4,4,4,4,2,3,2,2,3,4,4,4,4,4,3,2,4,3,4,1,2,3,2,3,4,2,3,2,2,3,2,2,3,2.53846153846154,2,2,2,1, ,4,4,5, ,1, ,6,3,1, ,2,8,3,2,8,1,2,3,1, , , , , , , , , , ,6,5,5,5,5,4,5,7,2,1,4,4,2,2,2,3,4,4,4,1,2,2,5,5,4,4,3,4,2,2,2,2,2,4,3,1,3,4,4,4,4,3,4,2,5,2,3,3,4,4,4,4,2,3,2,4,2,2,2,4,4,2,4,3,2,4,3.07692307692308,3,4,4,2,3,3,3,3,2,3,4,4,2,4,35.7,35.7,2,35.7,1,26,5,1,.253289370338627,-.500575252811955,SMU
1993,2,3,3,3,2,4,3,2,3,2,2,1,3,2,3,1,2.72222222222222,0,3.55555555555556,3.55555555555556,70,2.38888888888889, ,2.63636363636364,1,5,3,2,2,4,2,2,3,2,2,2,3,2,2,2,3,6,2,3,2,3,2,2,4,2,3,3,1,2,2,1,3,2,2,3,3,9:49:07,2,2,6,3,4,4,4,4,4,3,3,3,3,4,5,3,4,2,5,2,7,3.66666666666667,2.18181818181818,2,2,3,2,2,2,2,2,3,2,2,4,4,4,5,3,3,4,3,2,1,3,2,3,3,4,2,3,3,3,4,3,4,3,3.07692307692308,1,2,2,1, ,4,1,2,1,1, ,3,3,1, ,2,8,1, , ,1,1, ,1, , , , , , , , , , ,4,4,4,4,3,3,4,6,1,4,4,5,2,2,4,4,3,5,5,4,2,3,5,5,4,4,3,4,3,4,3,3,2,2,3,1,5,5,2,5,3,5,2,2,3,3,4,2,3,3,4,3,2,3,3,4,4,3,4,3,4,3,3,2,2,3,2.69230769230769,3,3,3,2,2,2,3,3,2,3,3,4,3,3,36.3,36.9,2,36.6,1,26,5,1,-.946364136287439,-.871668373563217,SMU
1996,2,4,1,3,1,2,3,3,2,2,1,2,2,1,2,2,4.77777777777778,0,4.88888888888889,3.44444444444444,71,2.83333333333333, ,2.18181818181818,1,4,5,4,6,6,5,4,5,3,4,5,6,5,5,5,6,7,1,6,5,2,2,3,1,2,2,2,5,2,4,1,2,3,3,2,4,9:44:49,1.8,2,2,3,5,4,5,5,5,5,5,5,5,4,5,4,2,2,4,5,57,6.16666666666667,2.45454545454545,4,4,1,4,2,1,1,2,3,1,4,2,5,2,4,4,4,4,2,4,2,2,2,5,3,4,2,2,2,4,4,2,4,2,2.92307692307692,2,2,2,1, ,4,4,5, ,8,5,8,7,1, ,2,8,1, , ,5,2,8,2,Volunteer,LTB,Biz Law,DA,JC clique,11,7,4,4,5,6,7,6,6,6,6,5,8,5,3,5,5,3,2,4,5,4,5,5,1,4,4,5,4,3,5,4,3,4,3,4,3,3,2,2,1,4,5,2,4,1,5,4,1,4,2,4,2,2,2,4,2,4,3,4,4,4,4,4,4,5,3,4,2,1,5,2.46153846153846,3,2,3,4,3,2,2,3,2,2,2,4,2,2,36.4,36.4,2,36.4,1,26,5,1,.983513243937102,-.376877545894867,SMU
1995,4,5,2,2,2,4,4,4,4,3,1,1,1,2,4,3,4.83333333333333,0,4.44444444444444,4.66666666666667,70,3.27777777777778, ,3.18181818181818,1,6,5,5,5,6,7,3,5,5,4,4,5,3,4,6,6,6,2,2,3,4,4,4,5,3,2,4,3,4,2,3,6,2,3,3,2,9:42:22,2.2,2,4,3,4,5,5,4,4,5,4,5,4,4,5,6,5,4,4,4,24,3.5,4.09090909090909,4,4,4,4,4,3,5,4,4,4,5,5,4,4,5,5,5,5,4,5,2,2,3,4,4,5,2,4,3,3,3,2,3,3,3.15384615384615,2,2,2,1, ,4,1,5, ,1, ,8,5,2,1,2,7,1, , ,2,1, ,2,Bondue EXCO,Consumer Behaviour Group,CAT Group,MPW Group, ,7,3,1,3, ,2,5,5,4,3,2,2,6,2,1,4,4,4,2,2,3,4,3,3,1,3,4,5,4,3,4,4,3,5,4,3,3,3,2,3,3,2,3,4,4,5,3,2,1,4,4,1,2,5,3,4,5,3,3,4,5,3,4,3,1,2,3,3,3,4,3,3.53846153846154,4,4,5,3,4,3,3,4,3,3,4,4,3,3,36.7,37,2,36.85,1,26,5,1,1.03567209205128,.117913281773483,SMU
1995,3,3,3,2,4,4,3,4,4,4,4,2,3,3,4,3,5,0,3,4,70,3.77777777777778,1,3.45454545454545,1,5,6,4,6,5,5,7,5,4,5,3,6,4,4,4,5,6,6,4,2,6,2,5,5,6,2,3,2,4,2,4,6,4,5,3,3,9:40:22,3,2,0,3,4,3,2,2,4,4,3,3,2,2,2,4,3,2,2,2,34,5.33333333333333,4.18181818181818,4,4,3,4,5,5,5,4,4,4,4,4,4,4,4,4,4,4,4,4,1,3,2,3,3,3,3,4,2,3,4,3,2,3,2.92307692307692,1,1,2,1, ,4,2,1, ,1, ,7,4,1, ,2,8,1, , ,1,1, ,2,smux,projects,yolo,others, ,7,5,7,7, ,6,5,5,6,5,5,6,5,1,4,3,4,1,2,3,2,2,5,4,3,3,4,2,3,3,2,4,3,2,4,4,3,2,3,3,2,2,3,4,4,2,4,4,3,2,1,4,3,4,2,4,3,2,4,2,4,4,3,3,2,4,3,2,3,4,4,2.92307692307692,4,4,4,2,2,2,2,4,2,2,4,4,2,4,36.3,36.5,2,36.4,1,27,5,1,1.19214863639381,.674552962900376,SMU
1995,5,4,4,3,5,5,4,2,2,4,5,2,3,2,3,2,5.33333333333333,0,3,3.66666666666667,70,3, ,3.90909090909091,1,7,6,7,6,4,7,6,4,6,5,6,4,4,2,4,7,6,5,3,2,4,2,3,4,2,3,3,2,3,2,2,2,4,4,3,6,9:38:17,2.4,2,2,3,4,2,4,4,3,3,2,2,3,3,4,3,2,3,2,2,24,4,3.36363636363636,4,4,4,4,4,2,2,4,2,3,4,4,4,2,5,3,4,5,2,4,1,4,1,4,4,5,1,4,2,3,4,5,4,2,3.30769230769231,2,2,2,1, ,4,4,4,2,1, ,4,3,1, ,2,8,3,1,5,2,2,6,1, , , , , , , , , , ,4,4,5,5,3,3,4,8,3,2,4,4,2,4,1,2,2,5,3,2,3,2,3,4,4,5,4,5,4,3,5,2,1,1,3,1,5,5,4,4,4,4,2,2,4,4,3,2,3,4,4,4,4,2,3,4,4,3,3,2,3,4,3,3,2,2,3.69230769230769,4,5,5,4,3,2,3,4,4,3,5,5,3,3,36.1,36.2,2,36.15,1,26,5,1,1.50510172507887,-.191330985519236,SMU
1993,3,3,3,3,2,2,3,3,3,4,2,3,3,2,3,3,4,0,3.88888888888889,2.44444444444444,70,4, ,2.81818181818182,1,4,4,4,4,4,4,4,4,4,4,4,4,4,4,4,4,4,4,4,4,4,4,4,4,4,4,4,4,4,4,4,4,4,4,4,4,9:38:12,2.8,2,25,3,4,3,4,4,4,4,4,4,4,2,2,2,2,2,3,2,10,2.66666666666667,2,2,2,2,2,2,2,2,2,2,2,2,2,4,2,2,2,2,2,2,4,2,4,2,4,4,4,4,3,2,4,4,4,2,4,3.46153846153846,1,2,2,1, ,4,4,1, ,3,1,5,3,1, ,2,8,1, , ,1,1, ,1, , , , , , , , , , ,3,3,3,3,2,2,2,6,2,1,4,5,2,1,3,3,4,4,3,1,2,2,4,3,4,3,3,3,2,4,3,3,3,4,3,1,2,5,5,3,2,1,2,2,3,2,2,2,4,4,4,4,2,2,4,4,3,3,3,4,3,3,3,2,2,2,2.92307692307692,3,4,4,2,2,3,2,4,2,2,4,4,2,4,36.4,36.2,4,36.3,1,26,5,1,.253289370338627,.921948376734552,SMU
1995,2,3,3,4,2,4,2,3,3,2,2,1,1,2,3,3,4.44444444444444,0,4.77777777777778,4.11111111111111,71,4.22222222222222, ,2.72727272727273,1,5,5,5,5,4,5,2,5,5,4,5,4,4,4,5,4,5,4,4,4,5,4,4,4,5,4,4,4,4,5,4,5,4,5,3,4,9:36:04,2,2,0,3,5,4,5,5,4,5,5,5,5,4,6,4,5,4,6,6,25,4.33333333333333,3.27272727272727,4,4,3,4,4,1,2,2,4,4,4,5,5,4,5,3,3,4,4,4,2,3,4,3,1,3,1,3,2,1,4,2,4,2,2.53846153846154,2,2,2,1, ,4,4,5, ,1, ,6,5,1, ,2,8,1, , ,1,2,3,2,Scholarship programme,School club,LGBT support group, , ,4,1,6, , ,3,5,4,4,5,5,5,6,3,2,4,4,2,3,3,3,4,4,2,1,2,3,5,2,4,5,4,3,3,3,3,3,3,3,2,1,4,4,4,4,4,3,2,2,3,1,4,1,2,2,4,1,3,3,3,5,3,3,3,3,4,2,2,3,1,5,2.46153846153846,3,3,3,2,3,2,2,2,2,2,4,4,2,2,36,35.8,2,35.9,1,26,5,1,.670560155252041,1.16934379056873,SMU
1993,4,4,3,3,4,4,5,4,3,4,4,3,4,2,3,2,4.77777777777778,1,3.22222222222222,3.55555555555556,70,1.94444444444444, ,3.81818181818182,1,7,6,5,5,6,7,6,3,5,2,5,2,3,7,4,4,6,3,3,1,2,1,2,2,3,2,1,1,1,1,1,3,3,3,2,3,9:32:19,2.8,2,0,3,4,4,3,3,3,3,3,3,3,5,6,6,3,3,4,4,13,4.66666666666667,2.54545454545455,3,2,3,3,3,2,3,3,2,2,2,3,4,3,4,3,4,3,4,4,1,3,3,4,4,4,2,3,3,3,4,5,5,3,3.53846153846154,2,2,2,1, ,4,4,5, ,3,3,2,2,2,2,2,3,1, , ,1,1, ,1, , , , , , , , , , ,6,6,4,4,4,4,4,7,1,3,3,4,2,3,3,4,3,4,4,2,3,5,3,4,3,5,4,5,4,3,4,3,2,2,2,2,3,4,4,4,3,2,2,2,4,4,2,3,4,5,2,4,2,3,3,4,3,4,3,3,2,3,2,2,2,2,3.15384615384615,3,3,5,3,3,3,3,3,3,3,4,4,2,3,35.5,36.4,2,35.95,1,26,5,1,.983513243937102,-1.36645920123157,SMU
1994,2,3,2,3,3,2,2,3,4,2,2,2,2,2,3,2,3.05555555555556,0,4.44444444444444,2.44444444444444,70,3.83333333333333, ,2.54545454545455,1,4,2,2,4,3,2,4,4,3,2,5,4,4,2,2,2,4,2,3,4,4,4,4,2,4,5,5,3,4,4,3,5,3,6,3,3,9:30:04,2.2,2,0,3,4,4,4,4,4,5,5,5,5,5,6,7,6,6,1,1,10,4.16666666666667,2.90909090909091,5,2,5,4,2,2,2,2,4,2,2,2,4,1,4,4,2,2,2,1,2,4,3,4,3,5,2,2,3,3,3,4,4,4,3.38461538461538,2,2,2,1, ,4,4,5, ,2,1,3,3,1, ,2,5,1, , ,1,1, ,1, , , , , , , , , , ,5,4,4,4,4,4,4,6,2,2,2,4,4,2,5,5,5,4,4,2,1,2,4,3,3,4,3,4,4,3,3,3,3,3,3,3,4,3,3,4,4,2,4,2,4,4,3,4,3,3,2,2,2,3,5,5,1,1,2,4,4,3,5,2,1,5,3,3,4,3,3,3,2,3,3,3,3,3,5,3,3,36.9,36.8,2,36.85,1,27,5,1,-.633411047602378,.736401816358921,SMU
1993,2,3,2,4,2,2,2,3,3,2,2,2,2,3,4,4,4,0,1.44444444444444,2.44444444444444,70,3.88888888888889, ,2.45454545454545,1,4,4,4,4,4,4,4,4,4,4,4,4,4,4,4,4,4,4,4,4,4,4,4,4,4,4,4,3,4,4,4,4,4,3,4,4,9:29:41,3,2,1,3,3,1,3,1,1,1,1,1,1,1,2,3,2,2,2,2,11,3.66666666666667,2,2,2,2,2,2,2,2,2,2,2,2,3,2,2,3,2,2,2,3,3,1,3,2,2,3,4,3,3,2,3,4,2,2,3,2.76923076923077,1,2,2,1, ,4,4,5, ,1, ,5,5,1, ,2,6,1, , ,1,1, ,1, , , , , , , , , , ,3,4,4,4,4,3,3,5,3,3,3,4,2,3,3,3,3,3,3,2,3,3,4,4,4,4,3,3,1,3,3,1,3,5,3,2,4,4,4,4,2,2,2,2,2,4,4,3,4,4,4,3,3,3,3,4,3,3,3,3,3,3,2,2,2,2,2.69230769230769,2,2,2,3,3,3,3,2,4,3,3,3,3,2,37.2,36.4,2,36.8,1,27,5,1,.253289370338627,.798250669817464,SMU
1994,4,4,3,4,4,4,4,4,4,4,3,2,2,2,4,2,4,0,4,3,70,4, ,3.81818181818182,1,4,4,4,4,4,4,4,4,4,4,4,4,4,4,4,4,4,4,4,4,4,4,4,4,4,4,4,4,4,4,4,4,4,4,4,4,9:28:48,2.4,2,0,3,4,4,4,4,4,4,4,4,4,3,6,6,3,6,4,2,11,6.16666666666667,3.27272727272727,4,4,3,3,3,3,3,3,3,4,3,3,3,3,3,3,3,3,3,3,2,3,3,3,3,3,3,2,3,3,3,3,3,3,2.92307692307692,2,2,2,1, ,4,4,5, ,8,3,6,2,1, ,2,8,1, , ,1,1, ,1, , , , , , , , , , ,4,7,7,7,7,5,5,6,2,2,4,4,2,2,4,4,4,4,2,2,1,1,5,5,3,3,3,4,4,2,4,4,2,2,3,1,5,4,4,5,2,3,2,1,4,4,4,2,4,4,4,4,2,4,3,4,1,2,2,2,3,3,3,2,1,5,3,3,3,3,3,3,3,3,3,3,3,3,3,3,3,37.7,36.3,2,37,1,27,5,1,.253289370338627,.921948376734552,SMU
1991,2,3,3,3,1,2,3,2,2,2,1,2,2,2,3,2,3.94444444444444,0,4.33333333333333,2.88888888888889,70,4, ,2.18181818181818,2,5,4,4,4,4,4,4,4,4,4,4,4,4,2,4,4,4,4,4,4,4,4,4,4,4,4,4,4,4,4,4,4,5,5,4,2,9:27:48,2.2,2,0,3,5,5,4,5,5,4,3,4,4,4,5,4,5,4,4,4,22,3.66666666666667,3.09090909090909,4,2,4,4,3,2,3,2,4,3,3,3,2,3,3,3,3,3,4,2,2,5,4,5,3,2,2,2,2,5,4,4,3,3,3.38461538461538,2,2,2,1, ,4,4,5, ,1, ,5,6,1, ,2,6,1, , ,3,2,8,1, , , , , , , , , , ,3,5,4,3,3,4,4,6,4,4,4,4,3,3,3,3,3,4,4,2,3,3,3,3,3,3,3,3,3,3,3,3,3,3,3,3,3,4,3,4,3,3,3,3,3,2,2,2,2,3,3,3,3,2,4,4,4,3,3,4,3,3,4,4,3,2,2.69230769230769,3,3,2,3,3,2,2,3,3,3,3,3,3,2,35.8,35.7,2,35.75,1,27,5,1,.20113052222445,.921948376734552,SMU
1995,4,4,4,4,4,4,4,4,3,4,2,2,4,2,5,2,4.83333333333333,0,3.77777777777778,3.77777777777778,71,4.44444444444444, ,3.72727272727273,1,5,5,5,5,5,5,3,5,5,5,5,4,5,5,6,5,7,2,5,4,5,4,4,5,5,5,5,3,4,4,4,5,5,4,5,4,9:23:13,3,2,0,3,4,4,3,4,4,4,3,4,4,5,5,5,3,3,5,6,19,6,2.72727272727273,4,2,4,4,2,2,2,2,2,2,4,4,4,4,4,4,4,3,3,4,1,4,4,4,4,4,2,3,2,4,5,4,5,4,3.76923076923077,2,2,2,1, ,4,4,5, ,2,4,6,6,2,3,2,6,1, , ,1,1, ,1, , , , , , , , , , ,6,6,6,6,6,6,6,7,3,4,3,4,3,2,4,4,4,4,4,1,1,2,4,5,4,3,3,4,3,3,3,3,2,2,2,1,5,3,3,3,4,4,4,2,4,4,4,2,2,4,4,4,3,3,4,4,2,3,3,4,5,3,4,2,3,4,2.38461538461538,4,2,3,2,2,2,2,3,2,2,2,5,2,3,35.9,36.2,2,36.05,1,26,5,1,1.03567209205128,1.4167392044029,SMU
1996,2,2,2,2,2,2,4,3,2,2,2,2,2,2,2,2,2.11111111111111,0,4,3.11111111111111,71,2.16666666666667, ,2.27272727272727,1,2,2,2,2,2,2,2,2,2,3,2,2,2,2,2,3,2,2,4,2,3,2,2,2,2,2,2,2,2,2,2,2,2,2,2,2,9:22:45,2,2,2,3,4,4,4,4,4,4,4,4,4,3,3,6,2,3,2,4,19,4.33333333333333,3.09090909090909,4,4,4,4,4,2,2,2,2,2,4,2,4,2,4,2,2,4,4,4,1,5,2,4,3,4,3,3,2,4,4,5,2,3,3.38461538461538,2,2,2,1, ,4,4,5, ,1, ,6,6,2,1,2,8,1, , ,1,1, ,2,"Community Service Project - still in the planning stages, not yet executed", , , , ,6, , , , ,3,5,5,5,4,4,5,6,3,2,1,4,3,3,4,4,4,4,4,2,4,4,3,2,4,4,4,4,4,4,4,4,2,2,2,2,4,4,4,4,3,2,4,2,4,2,2,4,2,3,4,3,4,3,4,4,4,4,4,2,4,4,4,4,4,4,3.07692307692308,3,3,4,3,2,2,3,3,3,3,4,4,3,4,37,36.8,2,36.9,1,26,5,1,-1.52011146554338,-1.11906378739739,SMU
1994,4,4,3,2,4,4,2,2,2,2,2,1,2,2,2,2,4,0,4.66666666666667,3.88888888888889,70,4, ,2.81818181818182,1,4,4,4,4,4,4,4,4,4,4,4,4,4,4,4,4,4,4,4,4,4,4,4,4,4,4,4,4,4,4,4,4,4,4,4,4,10:57:28,1.8,2,0,2,5,4,5,5,5,5,5,4,4,2,2,1,1,1,2,2,12,5.33333333333333,4,4,4,4,4,4,4,4,4,4,4,4,2,4,4,4,4,5,4,4,4,2,2,2,2,1,3,1,2,1,2,4,3,1,2,2,1,2,2,1, ,4,4,5, ,5,1,4,4,1, ,2,5,1, , ,2,1, ,1, , , , , , , , , , ,5,7,7,7,4,2,3,6,2,5,5,5,4,4,2,2,2,5,4,1,2,4,5,5,3,3,3,3,4,2,5,5,3,4,3,2,5,5,2,5,5,3,1,1,4,4,5,2,4,5,4,3,3,3,4,2,4,4,4,2,5,4,5,2,5,2,2.46153846153846,2,2,2,2,2,2,2,4,2,2,2,2,4,4,36.1,36.1,2,36.1,1,27,5,1,.253289370338627,.921948376734552,SMU
1995,2,1,1,2,1,1,1,1,2,1,1,2,1,2,2,3,3.83333333333333,0,5,1.11111111111111,70,4, ,1.27272727272727,1,1,4,4,4,4,4,4,4,4,4,4,4,4,4,4,4,4,4,4,4,4,4,4,4,4,4,4,4,4,4,4,4,4,4,4,4,10:52:31,2,2,0,2,5,5,5,5,5,5,5,5,5,5,8,6,4,7,8,8,15,4.66666666666667,1.27272727272727,2,1,2,1,1,1,1,1,2,1,1,1,1,1,1,2,1,1,1,1,2,5,3,5,5,5,3,4,4,4,4,4,5,4,4.23076923076923,2,2,2,1, ,4,4,5, ,2,2,8,5,1, ,2,8,1, , ,3,1, ,1, , , , , , , , , , ,4,5,4,5,5,5,5,6,3,2,5,5,2,2,2,2,2,5,5,2,2,2,3,4,3,4,3,3,4,4,4,4,2,1,1,2,4,5,2,4,2,2,1,2,5,5,2,1,3,3,3,4,2,3,4,2,2,3,4,1,4,4,4,2,4,2,2.30769230769231,2,3,3,2,2,2,2,2,3,3,2,4,2,2,36.7,37,2,36.85,1,27,5,1,.0968128259960969,.921948376734552,SMU
1991,2,4,2,4,2,2,2,2,2,4,2,2,4,3,4,4,3.61111111111111,0,2,3.88888888888889,70,4.16666666666667, ,2.54545454545455,1,3,3,3,4,4,3,3,5,5,3,4,3,3,3,5,3,5,3,5,3,5,4,3,4,5,4,5,3,5,5,3,5,4,4,4,4,10:51:53,3.4,2,0,2,2,2,2,2,2,2,2,2,2,1,2,2,2,2,2,2,11,1,3.81818181818182,4,5,4,4,3,2,4,4,4,4,4,4,5,2,5,4,4,4,2,5,2,2,3,4,2,2,2,2,2,2,2,2,4,2,2.38461538461538,1,2,2,1, ,4,4,5, ,2,2,3,3,1, ,2,8,1, , ,1,1, ,1, , , , , , , , , , ,1,1,1,1,1,1,1,6,2,2,1,3,2,4,2,2,2,4,2,2,2,3,4,2,3,3,2,3,2,2,3,2,2,4,2,2,4,4,2,4,2,2,2,2,4,2,3,2,2,4,4,2,2,2,2,4,2,3,4,2,2,2,4,2,4,2,3.07692307692308,4,3,4,3,3,2,3,3,4,3,3,4,2,3,36.5,36.4,2,36.45,1,26,5,1,-.11182256646061,1.10749493711018,SMU
1995,2,2,2,2,2,2,4,2,2,5,2,2,1,2,2,2,3.88888888888889,1,4.11111111111111,3.88888888888889,79,3.83333333333333, ,2.45454545454545,1,4,5,5,5,3,7,2,5,4,2,3,3,4,4,3,3,7,1,3,3,5,5,3,5,6,3,3,3,3,6,3,5,3,4,3,3,10:48:29,1.8,2,5,2,4,4,4,5,5,4,4,4,3,1,1,1,1,2,2,1,16,5.16666666666667,2.18181818181818,4,3,2,2,1,1,1,2,2,4,2,4,4,4,5,4,2,4,4,4,2,2,1,2,1,4,2,3,1,1,2,2,2,4,2.07692307692308,2,2,2,1, ,4,4,5, ,6,1,4,4,1, ,2,8,1, , ,1,1, ,2,Co-Cirricular Activity, , , , ,5, , , , ,5,5,4,4,7,6,5,6,2,4,4,5,2,2,4,5,3,5,5,1,3,4,4,2,5,4,4,3,3,4,2,2,4,2,3,1,3,5,5,4,4,4,2,2,3,2,4,1,3,2,4,4,4,4,4,4,4,4,2,4,4,3,2,2,1,2,2.84615384615385,3,2,4,3,3,3,4,3,3,3,2,5,1,3,36.1,36,2,36.05,1,26,5,1,.148971674110273,.736401816358921,SMU
1995,2,2,2,3,4,2,3,5,5,1,2,2,4,4,3,5,3.83333333333333,4,3,3.44444444444444,75,4.05555555555556, ,2.81818181818182,2,4,2,3,5,3,2,4,3,6,3,5,5,3,4,4,3,6,4,2,4,5,4,5,5,4,3,4,6,2,5,6,3,4,4,3,4,10:47:30,3.6,2,5,2,3,2,2,3,2,3,3,5,4,2,3,4,4,5,2,2,14,4.16666666666667,3.09090909090909,4,3,3,2,5,4,3,2,2,4,2,3,4,3,3,5,2,4,4,3,1,2,5,3,4,3,4,2,4,3,2,2,2,3,3,1,2,2,1, ,4,4,5, ,6,4,3,4,1, ,2,2,1, , ,1,1, ,1, , , , , , , , , , ,5,4,5,4,4,3,4,6,1,2,3,3,4,4,2,2,2,2,4,4,2,2,3,4,3,5,3,3,4,2,2,4,3,3,4,3,3,4,2,3,3,3,2,2,3,2,3,3,2,3,4,2,2,3,3,2,2,1,4,1,3,3,2,3,4,3,3.30769230769231,2,3,4,3,3,4,4,3,3,4,2,2,4,4,36.2,36.5,2,36.35,1,26,5,1,.0968128259960969,.983797230193095,SMU
1994,2,4,3,3,3,2,3,3,3,3,2,2,4,2,4,2,3.77777777777778,0,3.22222222222222,3.11111111111111,70,3.22222222222222, ,2.81818181818182,1,4,5,4,4,4,4,4,4,3,2,3,4,4,4,2,5,2,6,4,3,2,3,4,4,4,3,6,2,2,3,2,4,3,4,3,2,10:43:14,2.8,2,0,2,4,3,4,3,3,3,3,3,3,2,2,4,2,3,2,2,6,4.16666666666667,2.63636363636364,4,2,2,3,3,2,3,2,3,2,3,3,3,2,4,3,4,4,2,3,2,2,2,3,3,4,4,3,2,2,3,2,3,3,2.76923076923077,2,2,2,1, ,4,2,5, ,1, ,3,1,1, ,2,8,1, , ,2,1, ,1, , , , , , , , , , ,3,4,4,4,5,5,5,5,1,2,4,4,4,2,2,3,4,4,4,2,3,3,4,4,3,4,3,4,3,3,4,3,2,2,3,2,4,4,4,3,4,3,4,4,4,4,3,4,4,4,4,4,2,4,3,4,4,4,3,4,3,4,3,3,4,2,2.84615384615385,3,3,3,2,3,3,3,3,2,3,3,3,3,3,36.6,36.7,2,36.65,1,26,5,1,.0446539778819199,.0560644283149391,SMU
1995,4,4,3,3,4,4,4,4,3,4,4,2,2,2,3,2,4.5,0,3.88888888888889,3.66666666666667,70,4.27777777777778, ,3.72727272727273,1,4,5,5,5,5,5,4,5,4,4,5,4,4,4,5,4,5,4,4,4,5,5,5,5,5,4,5,4,3,4,3,4,4,4,5,4,10:42:31,2.2,2,1,2,4,4,4,3,4,4,4,4,4,4,6,5,3,3,2,2,25,5.83333333333333,3.18181818181818,4,4,4,4,4,2,2,2,3,2,4,4,4,4,4,4,3,2,4,4,2,3,2,3,3,4,2,4,2,4,4,2,4,3,3.07692307692308,2,2,2,1, ,4,4,5, ,8,6,2,4,1, ,2,8,1, , ,4,1, ,2,Toastmasters, , , , ,6, , , , ,5,6,6,6,6,6,6,6,2,1,4,3,3,4,2,2,4,4,4,2,2,3,4,4,3,3,3,3,3,3,3,3,3,3,3,3,3,4,4,3,4,3,2,2,3,4,1,2,3,3,4,5,2,2,3,4,2,2,2,4,4,3,4,4,3,4,2.92307692307692,3,3,3,3,2,3,3,3,3,3,3,4,3,3,36.8,37,2,36.9,1,27,5,1,.722719003366218,1.23119264402727,SMU
1992,4,4,4,2,4,4,4,3,4,4,4,2,4,2,4,2,4.77777777777778,0,4,3.77777777777778,79,3.66666666666667, ,3.72727272727273,1,5,5,5,5,5,5,5,5,3,5,3,5,5,5,5,5,5,5,5,3,5,3,5,5,5,3,3,3,3,3,3,5,3,3,3,3,10:39:50,2.8,2,9,2,4,4,4,4,4,4,4,4,4,4,2,4,5,6,7,7,13,4.5,4,4,4,4,4,4,4,4,4,4,4,4,4,3,4,4,3,4,4,4,4,2,3,2,2,3,3,2,3,2,4,3,4,2,3,2.76923076923077,1,2,1,1, ,4,3,5, ,3,1,6,5,2,2,2,2,1, , ,1,1, ,1, , , , , , , , , , ,7,4,4,4,4,4,4,7,2,4,4,4,4,4,4,4,4,3,3,3,4,4,4,4,4,4,4,4,4,4,4,4,4,4,3,4,3,3,3,3,3,3,3,3,3,3,3,3,3,3,3,3,3,3,3,3,3,3,3,3,3,3,3,3,3,3,3.38461538461538,4,5,5,4,2,2,2,3,3,2,4,5,3,5,36.3,36.3,2,36.3,1,26,5,1,.983513243937102,.550855255983289,SMU
1995,2,2,1,1,2,1,2,2,1,2,2,3,3,1,2,4,2.33333333333333,0,5,3.88888888888889,70,1.11111111111111, ,1.63636363636364,1,2,5,1,5,1,3,1,2,2,1,2,1,2,1,1,7,4,1,1,1,2,1,1,1,1,1,1,1,1,1,1,1,2,1,1,1,10:39:27,2.6,2,0,2,5,5,5,5,5,5,5,5,5,4,4,4,1,2,3,1,16,6.66666666666667,3,4,4,4,4,4,2,1,2,1,3,4,4,5,3,5,5,5,2,2,4,1,4,2,3,4,3,3,2,3,3,3,5,4,4,3.30769230769231,2,2,2,1, ,4,4,5, ,8,3,6,6,1, ,2,8,1, , ,2,1, ,1, , , , , , , , , , ,6,7,7,7,7,6,6,6,3,2,4,5,3,3,4,4,2,4,4,2,4,4,3,4,4,4,4,4,4,3,4,4,1,1,2,2,4,4,4,4,2,3,2,2,4,3,2,2,4,3,3,3,3,4,4,4,4,4,4,2,4,4,3,2,1,4,2.53846153846154,2,3,3,3,3,3,2,3,2,3,2,3,2,2,36.4,36.6,2,36.5,1,27,5,1,-1.31147607308668,-2.29419200310972,SMU
1995,3,2,3,3,3,2,3,2,3,2,2,4,2,2,3,2,3.94444444444444,0,4,3,71,3.94444444444444, ,2.54545454545455,1,4,4,4,4,4,4,4,5,4,3,3,3,5,4,3,4,5,4,4,4,5,3,4,3,4,3,3,5,5,5,4,4,3,3,4,5,10:36:44,2.6,2,3,2,4,4,4,4,4,4,4,4,4,3,2,4,1,1,1,1,22,4.33333333333333,3.09090909090909,4,3,3,3,3,3,3,3,3,3,3,3,3,3,3,3,3,3,3,3,1,3,4,4,3,3,1,3,3,2,3,3,3,3,2.92307692307692,2,2,2,1, ,2,2,5, ,3,2,7,8,1, ,2,8,1, , ,2,2,4,2,Volunteering group, , , , ,3, , , , ,4,5,4,4,4,5,4,7,3,3,4,4,3,3,3,3,3,4,3,3,3,3,3,3,3,3,3,3,3,2,3,3,3,3,3,3,4,3,3,3,3,3,3,4,4,3,3,3,3,3,3,3,3,3,3,3,3,3,4,3,3,3,3,3,3,3,3,3,3,3,3,3,3,3,3,3,3,3,3,3,3,36,36.9,2,36.45,1,26,5,1,.20113052222445,.860099523276008,SMU
1994,2,2,1,4,2,3,4,2,2,2,2,2,2,2,2,2,3.88888888888889,0,3.11111111111111,3.55555555555556,70,2.38888888888889, ,2.36363636363636,1,5,2,3,5,4,5,5,3,5,2,5,2,3,3,5,5,5,3,3,2,4,3,2,2,2,2,2,2,2,2,2,3,4,2,2,2,10:36:42,2,2,8,2,4,4,4,2,2,3,3,3,3,4,4,6,4,4,4,4,19,5.33333333333333,2.72727272727273,4,2,2,4,2,2,4,2,4,2,2,2,5,2,5,4,4,4,2,4,1,2,2,2,2,2,2,2,2,2,4,4,4,2,2.46153846153846,1,2,2,1, ,4,4,5, ,3,2,6,6,2,2,2,8,1, , ,4,1, ,1, , , , , , , , , , ,3,6,6,6,6,5,6,7,3,2,4,4,2,2,4,2,4,5,3,2,2,2,4,2,4,4,2,4,3,4,4,4,2,2,2,2,4,4,4,4,4,4,2,2,4,2,2,2,4,4,4,4,2,2,4,4,4,2,2,4,4,4,2,2,2,4,2.92307692307692,2,4,5,2,2,2,2,4,2,3,4,4,2,4,37.3,37,2,37.15,1,27,5,1,.148971674110273,-.871668373563217,SMU
1993,3,4,2,4,3,3,3,4,4,3,3,3,4,3,4,3,3.66666666666667,0,5,3,70,4.33333333333333,5,3.27272727272727,1,4,3,4,3,4,4,4,4,4,3,4,4,4,3,3,3,5,3,5,4,5,4,5,5,4,4,4,4,4,4,4,4,4,5,5,4,10:30:54,3.4,2,0,2,5,5,5,5,5,5,5,5,5,3,3,1,1,1,1,1,8,4,2.09090909090909,2,2,3,2,2,2,2,2,2,2,2,3,4,3,3,3,2,3,2,4,1,2,3,4,2,3,2,2,2,1,4,2,2,3,2.46153846153846,1,1,2,1, ,4,2,5, ,3,1,5,3,1, ,2,8,1, , ,1,1, ,1, , , , , , , , , , ,3,5,4,4,4,4,4,6,1,3,3,4,3,4,4,3,4,4,4,2,2,2,4,3,4,3,3,3,3,3,3,3,3,2,3,2,3,4,4,3,3,2,2,2,4,4,3,3,4,4,3,4,3,2,3,4,3,2,3,3,3,2,2,2,1,2,3.07692307692308,3,3,3,3,2,2,3,4,3,3,4,5,3,4,36.3,36.4,2,36.35,1,26,5,1,-.0596637183464337,1.29304149748581,SMU
1994,4,4,5,2,5,5,4,3,1,4,3,2,2,2,3,1,4.5,0,1,2.55555555555556,71,4.11111111111111, ,3.63636363636364,1,3,5,5,3,4,6,1,7,7,3,3,6,2,1,7,5,6,7,5,5,7,1,3,2,4,5,6,5,5,6,6,1,3,3,1,6,10:30:50,2,2,1,2,1,1,1,1,1,1,1,1,1,5,6,4,5,4,1,3,14,4.83333333333333,1.54545454545455,1,1,3,3,1,1,1,1,1,3,1,2,4,1,5,3,1,1,4,2,1,1,2,1,5,5,1,2,3,2,2,2,3,2,2.38461538461538,2,2,2,1, ,4,1,5, ,1, ,6,3,2,2,2,8,3,1,5,1,1, ,1, , , , , , , , , , ,5,7,2,6,6,3,5,7,1,2,5,5,1,1,3,5,2,5,5,2,2,1,5,4,3,5,1,3,1,1,5,1,1,1,4,1,4,5,5,4,1,5,2,3,4,3,4,4,4,4,5,5,1,3,3,4,1,3,3,4,3,4,1,1,1,5,3.76923076923077,5,5,5,1,4,4,4,5,1,5,1,5,4,5,36.8,36.6,2,36.7,1,26,5,1,.722719003366218,1.04564608365164,SMU
1993,4,2,2,2,2,2,2,4,2,4,2,2,4,2,2,4,5,2,4,3.66666666666667,70,4.27777777777778, ,2.54545454545455,1,5,5,5,5,5,5,5,5,5,5,5,5,5,5,5,5,5,5,3,3,5,5,4,5,5,5,5,5,5,5,3,5,5,3,3,3,10:27:49,2.8,2,1,2,4,4,4,4,4,4,4,4,4,3,3,4,2,2,2,2,15,5.16666666666667,3.63636363636364,4,4,4,4,4,3,3,3,3,4,4,4,4,3,4,3,4,3,4,4,2,2,2,2,3,3,2,3,2,3,3,3,2,3,2.53846153846154,2,2,2,1, ,4,4,5, ,3,3,4,3,2,1,2,5,1, , ,3,1, ,1, , , , , , , , , , ,6,5,5,5,5,5,4,7,2,3,3,4,4,3,3,3,4,4,2,2,4,4,4,2,4,2,2,4,3,4,4,4,4,4,3,1,4,4,4,2,2,2,3,2,2,4,2,2,4,2,4,4,4,2,2,4,4,4,4,2,4,4,4,4,3,4,3.07692307692308,3,3,3,3,3,3,3,3,3,3,3,3,3,4,36.6,37,2,36.8,1,26,5,1,1.19214863639381,1.23119264402727,SMU
1996,3,5,3,3,4,3,4,4,3,3,4,2,3,2,3,2,5,0,4.55555555555556,3.33333333333333,70,2.83333333333333, ,3.54545454545455,1,6,6,6,6,7,4,6,4,2,4,6,5,5,4,4,5,6,4,6,2,3,2,2,3,3,2,2,2,2,3,3,4,3,3,4,2,10:23:18,2.4,2,1,2,5,5,5,5,5,4,4,4,4,4,7,6,1,6,6,6,21,6.5,3.27272727272727,4,4,3,4,3,3,3,3,3,3,3,3,4,3,4,3,4,3,3,3,2,2,3,3,3,3,1,3,2,3,4,2,4,3,2.76923076923077,1,2,2,1, ,4,2,5, ,6,3,8,6,2,8,2,6,1, , ,1,1, ,1, , , , , , , , , , ,6,7,7,7,6,6,6,7,4,3,3,5,3,2,3,4,3,2,4,3,3,3,3,3,4,3,3,4,4,3,4,3,1,1,3,2,4,5,2,3,2,3,2,1,4,4,3,3,3,3,3,4,2,3,3,3,3,3,3,2,3,3,4,3,3,3,3,3,4,3,3,3,2,3,3,4,3,2,3,3,3,37.5,36.8,2,37.15,1,26,5,1,1.19214863639381,-.376877545894867,SMU
1995,2,3,2,2,2,3,3,2,2,2,2,2,2,2,2,2,3.88888888888889,0,3.22222222222222,3.55555555555556,70,3.94444444444444, ,2.27272727272727,1,4,4,4,4,4,3,4,4,4,4,3,4,4,4,4,4,5,3,3,3,4,4,4,5,4,4,4,4,5,5,3,4,4,4,3,4,10:14:13,2,2,0,2,4,3,4,3,3,3,3,3,3,3,4,4,3,3,3,3,13,4,3.72727272727273,4,4,4,4,4,4,3,3,4,3,4,4,4,3,4,3,3,4,3,4,2,3,4,4,5,4,3,3,3,4,3,4,4,4,3.69230769230769,2,2,2,1, ,4,4,5, ,2,2,5,5,1, ,2,8,1, , ,1,1, ,1, , , , , , , , , , ,3,4,4,5,4,4,4,6,3,2,4,3,3,3,3,3,4,4,3,2,3,3,4,4,3,3,4,3,3,3,3,4,3,3,3,2,3,4,4,3,3,2,2,2,4,3,3,2,3,3,3,3,3,4,3,4,2,2,2,3,3,2,3,2,3,3,3,3,3,4,3,3,3,3,3,3,3,3,4,2,3,36.4,36.5,2,36.45,1,26,5,1,.148971674110273,.860099523276008,SMU
1995,2,2,2,2,2,2,2,2,2,2,2,4,2,1,1,1,2.33333333333333,0,4.77777777777778,5,79,2.55555555555556, ,2,1,2,2,2,2,3,3,1,2,3,2,2,1,5,3,5,1,2,1,2,2,6,2,5,2,2,2,5,1,1,1,2,5,2,2,2,2,10:12:47,1.8,2,1,2,5,5,5,5,5,5,4,5,4,5,6,6,5,5,6,6,22,5,3.63636363636364,5,4,5,4,4,4,2,2,2,4,4,5,5,5,5,5,5,5,5,5,1,1,2,5,2,2,2,1,2,2,3,3,5,2,2.46153846153846,2,2,2,1, ,4,2,5, ,2,2,6,6,2,1,2,8,1, , ,2,2,8,1, , , , , , , , , , ,5,5,5,5,5,5,5,8,4,1,4,4,4,4,4,4,4,5,4,1,1,1,5,5,4,4,2,5,4,4,5,4,1,1,2,1,1,4,4,4,1,4,1,1,1,2,4,4,2,3,4,4,4,2,3,4,4,5,4,2,2,2,2,2,2,2,2,2,2,4,2,2,1,2,2,2,2,2,4,2,1,36.4,36.1,2,36.25,1,26,5,1,-1.31147607308668,-.686121813187586,SMU
1995,5,5,1,5,5,5,5,4,2,5,4,1,3,2,3,1,6.66666666666667,1,4.77777777777778,3,71,2.16666666666667, ,4.18181818181818,1,7,7,7,7,7,7,7,7,7,7,7,7,7,7,1,7,7,7,1,1,1,1,1,1,7,4,1,1,7,1,1,1,1,1,1,7,10:05:16,2,2,11,2,5,5,5,5,5,5,3,5,5,4,3,6,2,4,4,4,12,6.66666666666667,2.27272727272727,3,1,5,5,1,1,5,1,1,1,1,3,1,1,5,1,5,5,5,1,1,1,1,2,2,4,1,2,2,1,2,2,2,1,1.76923076923077,2,2,2,1, ,4,4,5, ,1, ,1,2,2,2,2,3,1, , ,3,1, ,1, , , , , , , , , , ,7,7,7,7,6,6,7,6,1,4,2,4,2,1,1,5,5,5,3,5,3,5,4,1,5,5,5,5,5,3,5,4,1,1,1,1,2,1,5,1,1,3,1,1,3,3,4,1,1,1,5,4,5,4,3,5,5,5,1,1,5,5,1,3,1,5,3.30769230769231,5,4,4,3,1,2,3,4,3,2,5,4,2,5,37,37.1,2,37.05,1,26,5,1,2.75691407981911,-1.11906378739739,SMU
1994,1,4,2,4,4,3,4,5,4,4,4,3,4,2,4,4,4.88888888888889,0,4.55555555555556,4.11111111111111,70,3.77777777777778, ,3.54545454545455,1,4,6,4,5,6,6,5,5,5,4,6,5,3,3,7,5,6,3,6,5,2,4,5,4,3,4,3,3,3,3,3,5,2,3,5,5,9:48:01,3.4,2,0,2,4,3,4,5,5,5,5,5,5,2,2,2,2,2,2,3,19,6,3.54545454545455,3,4,3,4,3,3,4,3,3,4,5,4,5,3,5,5,3,5,3,4,2,4,2,1,3,4,1,3,2,4,4,1,3,3,2.69230769230769,2,2,2,1, ,4,4,5, ,8,3,4,2,2,1,2,8,1, , ,1,1, ,2,ASMU, , , , ,7, , , , ,6,7,6,6,6,5,5,7,2,1,5,4,2,4,3,1,4,5,4,2,2,2,5,5,2,4,4,4,2,1,2,2,2,4,3,1,4,4,4,3,5,4,3,2,2,2,4,4,3,3,4,2,5,3,4,5,2,2,5,2,3,4,4,2,1,5,3.23076923076923,4,3,4,2,3,4,1,4,3,3,4,5,2,5,36.8888888888889,36.7777777777778,2,36.8333333333333,1,26,5,1,1.08783094016546,.674552962900376,SMU
1995,2,4,2,3,3,2,2,3,3,3,2,1,2,2,2,3,3.77777777777778,0,4,3.11111111111111,70,3.38888888888889, ,2.63636363636364,2,5,4,4,4,3,5,4,3,4,5,3,3,3,3,3,5,4,3,3,3,5,3,3,3,3,3,3,3,3,3,4,3,5,4,3,4,9:39:19,2,2,0,2,4,4,4,4,4,4,4,4,4,5,7,6,7,7,7,7,12,5.5,2.90909090909091,3,4,4,3,4,2,1,2,2,3,4,2,2,2,4,4,4,4,4,2,2,4,3,2,4,4,2,3,2,2,4,3,5,4,3.23076923076923,2,2,2,1, ,4,4,5, ,3,3,5,3,1, ,2,8,1, , ,1,1, ,1, , , , , , , , , , ,6,5,5,5,6,6,6,6,2,2,4,4,2,2,4,4,2,4,4,2,2,2,4,3,3,4,3,4,3,4,4,3,2,2,4,2,4,4,4,4,3,1,2,4,4,4,2,2,3,4,4,4,4,2,2,4,4,4,4,2,4,4,4,2,4,4,3.15384615384615,3,4,4,2,3,2,3,4,4,3,3,5,2,4,36.2,36.1,2,36.15,1,26,5,1,.0446539778819199,.24161098869057,SMU
1992,2,4,2,2,2,3,4,4,2,4,2,2,2,2,3,2,2.88888888888889,0,3.11111111111111,3.11111111111111,70,2.27777777777778, ,2.81818181818182,1,5,3,3,3,2,2,2,3,2,2,3,2,2,5,5,2,4,2,3,2,5,2,2,1,1,1,2,2,2,2,2,2,4,4,1,3,9:38:09,2.2,2,0,2,2,2,4,4,2,2,4,4,4,3,4,4,2,2,2,2,15,3.5,3.36363636363636,4,4,4,4,3,2,4,3,3,2,4,2,3,3,4,4,4,2,2,4,1,4,5,4,4,4,4,4,4,4,5,4,1,2,3.76923076923077,1,2,2,1, ,4,4,5, ,2,2,6,3,1, ,2,8,1, , ,1,1, ,2,SMU Ambassadorial Corps, , , , ,4, , , , ,3,4,5,5,2,2,3,6,2,1,2,4,4,5,2,4,5,4,2,1,4,4,4,5,2,5,2,5,3,2,4,4,1,4,2,2,1,2,5,3,5,2,2,1,4,4,2,1,4,5,2,4,2,1,4,4,5,5,2,2,4,3,5,3,2,2,2.46153846153846,2,3,3,3,2,4,2,3,3,2,2,5,1,2,36.3,36.3,2,36.3,1,27,5,1,-.789887591944908,-.995366080480305,SMU
1991,3,2,5,3,3,3,3,3,3,3,4,2,3,2,4,2,4,4,2.77777777777778,3,79,4, ,3.18181818181818,1,4,4,4,4,4,5,4,4,4,5,4,4,5,4,2,4,4,3,4,4,5,4,4,4,4,4,5,4,3,4,3,4,4,4,4,4,9:32:36,2.6,2,4,2,2,3,4,3,3,2,2,3,3,2,2,3,2,2,2,2,19,6.83333333333333,2,2,2,2,2,2,2,2,2,2,2,2,3,3,3,3,3,2,3,3,4,2,3,3,4,3,3,3,3,2,3,5,3,3,3,3.15384615384615,1,2,2,1, ,4,4,5, ,8,6,6,4,1, ,2,8,1, , ,1,2,3,1, , , , , , , , , , ,6,7,7,7,7,7,7,7,2,3,4,4,4,2,4,3,3,3,3,2,3,3,4,4,4,4,4,4,3,4,4,3,3,3,3,4,3,4,4,5,3,4,4,2,3,3,4,2,2,3,3,3,3,4,3,4,3,3,3,3,5,3,4,4,2,5,2.61538461538462,2,3,3,2,4,2,5,1,2,2,3,4,2,3,36.7,36.6,2,36.65,1,26,5,1,.253289370338627,.921948376734552,SMU
1993,3,3,3,3,3,3,3,3,3,3,3,3,3,3,3,3,4,4,3,3,71,4,2,3,1,4,4,4,4,4,4,4,4,4,4,4,4,4,4,4,4,4,4,4,4,4,4,4,4,4,4,4,4,4,4,4,4,4,4,4,4,9:05:05,3,2,4,2,3,3,3,3,3,3,3,3,3,3,6,4,4,4,4,4,14,5.16666666666667,3,3,3,3,3,3,3,3,3,3,3,3,3,3,3,3,3,3,3,3,3,1,3,3,3,3,3,3,3,3,3,3,3,3,3,3,1,1,2,1, ,4,4,1, ,3,3,4,3,2,2,2,1,1, , ,1,1, ,1, , , , , , , , , , ,6,5,5,5,5,5,5,7,1,3,3,3,3,3,3,3,3,4,4,4,3,3,4,3,3,4,3,3,3,3,3,3,3,3,3,1,4,4,3,4,3,3,3,3,3,3,3,3,3,3,3,3,3,3,3,3,3,3,3,3,3,3,3,3,3,3,3,3,3,3,3,3,3,3,3,3,3,3,3,3,3,37,37.1,2,37.05,1,26,5,1,.253289370338627,.921948376734552,SMU
 ,2,2,4,2,1,5,2,2,3,2,1,1,1,2,3,4,6.61111111111111,0,4.88888888888889,3.44444444444444,70,2.66666666666667, ,2.36363636363636, ,7,7,7,7,7,7,6,7,6,6,7,7,6,7,7,5,7,6,2,2,4,2,4,2,2,3,3,2,2,2,2,2,6,4,1,3,10:56:49,2.2, ,1.5,1,5,5,5,4,5,5,5,5,5,5,4,7,7,7,7,1,9,6.33333333333333,3.09090909090909,4,3,4,4,4,2,2,2,2,3,4,4,4,2,4,2,3,4,4,4, ,1,3,3,2,3,2,3,2,2,4,2,3,4,2.61538461538462, , ,2,1, ,4,4,5, ,1, ,6,3,1, ,2,4,1, , ,1,1, ,1, , , , , , , , , , ,7,6,6,6,7,6,6,5,1,1,5,5,5,3,3,3,3,5,4,1,2,4,4,4,4,4,4,4,3,1,3,3,2,2,4,1,4,5,5,4,2,4,2,2,2,5,3,1,5,4,1,3,3,3,2,4,4,4,2,2,2,4,2,2,2,4,4.46153846153846,5,5,5,4,5,4,3,5,5,4,5,5,3,5,36.1, , ,36.1,1,27,5,1,2.70475523170493,-.562424106270499,SMU
1993,4,2,2,2,3,2,4,2,2,3,2,1,2,1,2,3,5.27777777777778,0,5,4,70,4.16666666666667,4,2.54545454545455,1,6,5,4,5,6,6,4,6,5,4,5,6,5,5,6,6,6,5,6,4,5,2,4,5,5,4,4,4,4,4,4,5,5,2,4,4,10:09:34,1.8,2,1,1,5,5,5,5,5,5,5,5,5,4,5,7,2,2,3,3,14,6.66666666666667,4,4,4,4,4,4,4,4,4,4,4,4,4,4,4,4,4,4,4,4,4,2,2,2,2,2,3,2,3,2,1,3,2,2,2,2.15384615384615,1,1,2,1, ,4,4,5, ,2,2,2,2,2,1,2,8,3,1,2,1,1, ,1, , , , , , , , , , ,7,7,6,6,7,7,6,8,2,2,2,5,3,5,3,2,4,3,2,4,4,4,4,3,2,5,5,3,4,4,3,4,3,4,3,2,4,2,4,4,2,4,4,2,4,3,2,3,4,3,4,4,2,2,3,3,3,4,4,2,4,4,3,4,2,4,3.92307692307692,4,4,5,3,4,3,3,5,3,3,5,5,4,5,37.1,37.1,2,37.1,1,26,5,1,1.45294287696469,1.10749493711018,SMU
1994,4,4,1,3,4,4,4,4,4,4,2,1,4,2,5,4,4.83333333333333,0,4.88888888888889,4.33333333333333,70,5.44444444444444, ,3.45454545454545,1,5,6,6,6,2,6,6,5,6,5,2,4,6,2,6,4,6,4,6,3,6,6,6,6,6,6,6,3,6,6,6,6,6,6,6,2,9:43:44,3.2,2,0,1,5,5,4,5,5,5,5,5,5,4,5,1,1,1,1,4,12,2.83333333333333,3.18181818181818,4,2,4,5,5,1,1,1,2,5,5,5,5,2,5,5,5,2,5,5,2,1,1,5,1,5,1,1,1,1,1,1,4,1,1.84615384615385,2,2,2,1, ,4,4,5, ,5,4,3,2,1, ,2,8,1, , ,1,1, ,1, , , , , , , , , , ,3,7,1,2,2,2,2,6,2,1,2,3,2,4,2,2,4,4,4,1,1,1,5,5,2,1,1,2,2,1,3,4,3,4,3,2,3,4,4,3,4,4,4,3,1,4,1,4,4,4,2,4,1,2,2,4,1,1,1,4,4,2,2,1,2,5,3.92307692307692,5,4,5,1,1,4,5,5,4,5,3,5,5,4,36.7,36.7,2,36.7,1,27,5,1,1.03567209205128,2.53001856665669,SMU
 ,4,4,3,4,3,3,4,4,3,4,2,3,3,2,3,2,3.83333333333333,0,4,3.55555555555556,79,2.83333333333333, ,3.45454545454545, ,4,4,4,4,4,4,4,5,4,3,4,3,4,5,4,3,4,2,4,4,3,2,3,3,3,4,2,2,2,4,2,3,2,3,3,2,11:03:34,2.6, ,5, ,4,4,4,4,4,4,4,4,4,3,4,5,4,4,4,4,18,4.83333333333333,3.54545454545455,4,4,4,4,4,3,2,3,3,4,4,2,4,3,4,4,4,4,4,3, ,3,3,4,3,4,3,2,2,2,3,2,3,3,2.84615384615385, , ,2,1, ,4,4,5, ,3,4,4,4,1, ,2,8,3,1,3,1,1, ,1, , , , , , , , , , ,6,5,4,5,5,4,5,7,2,2,4,4,3,3,3,4,4,4,4,2,3,3,4,4,3,4,3,4,3,2,3,3,2,2,2,2,4,4,3,4,3,4,2,2,3,2,3,2,4,3,3,2,3,3,3,4,4,4,4,3,2,4,4,3,2,4, , , , , , , , , , , , , , , ,36.3, , ,36.3,1,26,5,1,.0968128259960969,-.376877545894867,SMU
 ,1,3,1,2,1,1,1,1,1,1,1,4,2,2,4,2,1.94444444444444, , ,2.33333333333333,70,2.5, ,1.27272727272727, ,2,2,2,2,2,1,2,2,3,2,2,2,2,1,2,4,1,1,2,3,2,3,2,2,5,2,2,2,2,2,2,2,3,3,2,4,11:02:17,2.8, , , , , , , , , , , , ,2,2,4,1,3,1,4,7,2.66666666666667,1,1,1,1,1,1,1,1,1,1,1,1,2,5,1,5,2,2,1,1,2, , , , , , , , , , , , , , , , , ,2,1, ,4,4,5, ,1, ,8,1,1, ,2,8,1, , ,1,1, ,1, , , , , , , , , , ,2,4,3,3,2,2,3,5,2, , , , , , , , , , , , , , , , , , , , , , , , , , , , , , , , , , , , , , , , , , , , , , , , , , , , , , , , , , , , , , , , , , , , , , , , ,37.1, , ,37.1,1,26,5,1,-1.67658800988591,-.74797066664613,SMU
1992,2,2,1,2,2,1,3,2,2,2,2,2,2,2,4,3,5.11111111111111,0,3.55555555555556,3.33333333333333,69,2.55555555555556, ,1.90909090909091,1,6,6,6,6,5,5,7,6,2,5,5,4,2,3,5,7,7,5,3,2,5,2,3,2,1,3,2,2,2,3,3,1,3,2,2,5,9:54:39,2.6,2,6,4,5,4,4,3,2,4,4,4,2,5,7,4,2,2,2,3,24,1.66666666666667,2.45454545454545,4,4,4,3,2,1,2,1,1,2,3,3,4,2,4,4,2,3,4,4,1,2,3,4,5,5,2,2,2,1,2,2,3,2,2.69230769230769,2,2,1,1, ,4,4,2,1,3,1,7,5,1, ,2,7,3,1,5,1,1, ,2,Dance society, , , , ,5, , , , ,2,2,2,2,1,1,2,8,3,1,2,1,5,5,4,4,3,1,2,1,2,2,2,4,4,5,4,3,2,4,4,1,4,1,2,5,1,4,4,2,2,5,2,2,3,2,2,2,2,2,4,2,4,1,4,4,4,4,4,2,2,4,4,4,2,2,3.15384615384615,3,3,4,4,3,3,3,4,3,4,2,2,2,3,36.3,36.3,2,36.3,1,5,5,1,1.18985457850496,-.55081581154904,Southampton
1992,2,2,1,2,2,2,2,2,4,1,2,2,2,2,3,3,1.94444444444444,0,3.22222222222222,2.55555555555556,83,2.77777777777778, ,2,1,2,2,2,1,2,2,2,2,2,2,2,2,2,2,2,2,3,1,4,2,5,2,4,2,2,2,2,3,3,3,3,2,3,4,2,2,10:36:25,2.4,2,5,4,3,4,3,4,4,3,2,3,3,4,5,3,2,2,2,3,38,2.83333333333333,2.45454545454545,3,3,4,3,2,2,2,2,2,1,3,2,4,2,4,2,2,2,2,3,1,4,4,3,4,4,3,3,2,3,4,4,4,3,3.46153846153846,1,2,2,1, ,4,4,4,4,8,5,8,8,1, ,2,8,3,1,8,1,1, ,2,Football team, , , , ,6, , , , ,3,3,3,2,3,3,2,8,3,3,5,5,2,2,4,4,1,5,3,3,3,2,2,2,3,4,3,3,3,3,4,3,2,2,2,1,4,5,4,4,2,2,1,4,4,4,2,2,3,3,3,2,2,3,4,2,2,2,3,3,4,2,3,2,4,2,2.53846153846154,2,3,3,4,2,2,3,3,2,2,3,4,2,2,35.9,36.9,2,36.4,1,5,5,1,-1.50504784433409,-.330489486929424,Southampton
1992,4,3,1,4,3,3,2,2,2,3,4,2,2,2,3,4,4.33333333333333,0,3.88888888888889,2.88888888888889,86,3.22222222222222, ,2.81818181818182,1,5,4,4,4,3,5,5,5,4,5,3,4,4,4,4,5,7,3,3,3,4,2,4,3,3,3,4,3,3,3,3,3,3,4,3,4,11:11:07,2.6,2,9,3,4,4,4,3,4,4,3,4,5,4,3,7,3,3,3,2,22,4.33333333333333,2.90909090909091,4,4,4,4,2,1,3,2,1,4,3,3,4,3,3,3,2,2,2,4,1,3,4,3,3,2,4,1,4,3,3,3,4,3,3.07692307692308,2,2,2,1, ,4,4,5, ,2,1,6,6,1, ,1, ,3,1,8,1,1, ,1, , , , , , , , , , ,4,4,5,4,4,5,5,6,2,2,4,2,5,4,2,2,4,2,2,3,2,3,3,4,4,5,4,4,3,3,2,2,2,2,2,5,2,2,4,2,4,3,2,3,3,3,1,2,4,3,4,3,4,2,3,3,4,4,5,2,2,4,5,3,2,2,3,3,2,4,3,4,3,3,3,3,2,3,2,2,4,36.8,37,2,36.9,1,7,5,1,.527948720263791,.110163162309808,Southampton
1992,3,3,2,3,3,3,3,3,2,3,2,2,3,2,3,3,4.22222222222222,0,3.33333333333333,3,60,4.44444444444444, ,2.72727272727273,1,4,4,4,4,4,3,5,4,4,4,5,4,4,5,4,4,5,5,4,4,5,4,4,5,5,4,5,4,4,4,4,5,4,6,4,5,9:44:21,2.6,2,0,2,4,3,4,3,4,3,3,3,3,2,2,3,2,2,2,2,14,3.83333333333333,3,3,3,3,3,3,3,3,3,3,3,3,3,3,3,3,3,3,3,3,3,1,2,2,3,2,3,2,2,2,3,3,2,3,2,2.38461538461538,1,2,2,1, ,4,3,5, ,3,1,2,2,2,1,2,5,1, , ,1,1, ,2,frisbee club, , , , ,5, , , , ,3,4,4,4,4,4,4,7,2,2,3,4,4,3,2,4,3,4,3,3,2,3,4,4,4,4,3,3,3,3,3,3,3,3,3,3,4,3,4,4,3,4,2,4,3,3,4,3,3,3,3,2,3,2,3,3,3,3,3,3,4,3,3,3,3,2,3,3,3,3,3,3,3,3,3,3,3,3,3,3,3,35.7,36.3,2,36,1,3,5,1,.433390740515053,1.3219579477177,Southampton
1995,2,2,1,2,4,2,2,2,2,2,2,2,2,1,2,1,2.66666666666667,0,4,3.11111111111111,60,1.66666666666667, ,2.09090909090909,1,2,4,2,3,2,3,1,5,3,2,3,2,5,2,1,2,5,1,1,2,2,1,2,2,1,1,2,1,1,1,2,2,4,3,1,1,10:21:49,1.6,2,0,3,4,5,4,4,5,4,2,4,4,4,5,6,2,3,3,1,34,4.83333333333333,2.90909090909091,4,4,4,4,2,2,2,2,2,2,4,2,4,2,4,2,2,4,4,4,1,4,4,5,5,5,3,4,1,2,3,5,4,4,3.76923076923077,2,2,2,1, ,4,2,4,1,4,4,8,8,2,8,2,8,3,1,4,1,2,4,1, , , , , , , , , , ,7,5,4,3,5,5,5,10,4,2,4,2,4,4,4,4,4,4,2,2,2,2,4,4,5,4,4,4,4,3,4,5,2,2,4,4,2,4,5,2,4,4,2,4,5,4,2,2,4,2,4,4,4,2,2,5,4,3,4,4,4,4,5,5,2,2,2.92307692307692,3,2,4,3,2,3,3,4,2,4,3,4,2,3,35.9,36.2,2,36.05,1,3,5,1,-.89042097596729,-1.4321211100275,Southampton
1990,3,2,1,3,2,1,2,3,1,2,1,3,2,2,3,2,4,0,4.22222222222222,2.44444444444444,60,4, ,1.90909090909091,1,4,4,4,4,4,4,4,4,4,4,4,4,4,4,4,4,4,4,4,4,4,4,4,4,4,4,4,4,4,4,4,4,4,4,4,4,10:56:15,2.4,2,0,5,5,5,5,5,4,4,4,3,3,4,2,4,1,2,2,1,10,5.66666666666667,2,3,3,2,3,1,1,2,1,3,1,2,2,4,1,4,2,2,2,2,3,2,2,3,1,2,2,2,1,3,4,4,3,3,2,2.46153846153846,1,2,2,1, ,4,4,5, ,2,2,6,2,1, ,2,8,1, , ,1,1, ,1, , , , , , , , , , ,6,6,5,5,6,6,5,6,2,4,4,4,4,2,2,3,3,4,3,2,3,4,4,2,3,3,3,3,3,3,3,3,3,3,3,3,4,4,3,3,2,2,2,3,4,4,2,2,3,3,4,3,2,3,4,2,2,2,4,2,2,2,3,2,2,2,2.30769230769231,2,2,3,2,2,2,3,2,3,2,3,4,2,2,35.9,35.8,2,35.85,1,3,5,1,.244274781017575,.881305298478463,Southampton
1997,2,3,1,1,2,2,3,3,2,2,1,5,5,1,3,1,2.61111111111111,0,3.88888888888889,3.77777777777778,21,2.27777777777778,0,2,1,2,1,1,1,6,2,5,6,1,1,1,4,2,1,2,5,5,1,7,1,5,1,1,2,2,2,2,1,2,2,1,1,1,5,3,2,8:15:14,3,2,12,5,3,4,3,4,5,4,4,4,4,5,7,6,6,4,5,6,35,5.83333333333333,3.36363636363636,5,3,5,5,1,2,5,3,1,2,5,4,4,1,5,3,2,5,5,5,1,3,5,4,4,4,1,4,1,4,4,4,3,4,3.46153846153846,2,2,2,1,0,4,2,5,0,3,1,5,4,1,1,2,8,3,1,3,1,1,8,1,清华大学合唱队,清华电视台学生记者团,清华大学社科团委,清华大学社科科协,清华大学治安服务分队, , ,5,6,2,6,4,4,5,6,7,7,9,2,4,4,4,4,3,3,4,2,5,2,3,1,1,3,3,4,3,2,5,4,4,5,5,2,3,2,1,4,5,3,4,4,4,2,1,4,3,2,1,4,3,5,3,2,2,4,4,3,3,5,3,2,5,5,4,5,4,1.61538461538462,1,2,2,1,1,1,2,3,1,2,1,5,2,2,36.3,37,1,36.65,1,11,7,3,-1.38526201872346,-1.14595532904551,Tsinhua
1994,1,3,4,3,1,4,3,3,4,2,5,2,1,1,4,3,2.77777777777778,2,5,3,78,1.27777777777778,8,3,1,7,1,1,1,7,2,3,2,4,2,1,4,1,1,1,4,4,4,2,1,1,1,1,1,1,3,1,1,1,1,2,1,1,2,1,1,10:03:23,2.2,2,3,5,5,5,5,5,5,5,5,5,5,4,3,1,1,1,2,1,20,6.66666666666667,3,3,3,3,3,3,3,3,3,3,3,3,3,3,1,3,2,3,5,4,3,1,2,4,4,3,2,1,1,4,5,5,3,4,2,3.07692307692308,1,1,2,1,0,2,1,5,0,7,4,4,2,2,8,2,5,3,1,1,1,2,1,1, , , , , , , , , , ,7,1,5,7,6,6,6,9,3,1,5,4,4,5,1,1,5,4,4,1,5,3,2,2,5,5,5,5,5,2,3,2,2,2,4,1,2,2,2,2,2,3,2,2,5,1,1,1,4,4,5,5,3,3,2,4,1,4,2,2,3,5,3,4,4,4,2.53846153846154,4,4,4,2,2,2,2,2,2,2,3,4,2,2,36.5,36.2,1,36.35,1,17,7,3,-1.18833199981476,-2.50147890639937,Tsinhua
1995,3,3,1,3,3,3,2,3,4,2,2,2,3,3,3,2,3.55555555555556,0,3.33333333333333,4.22222222222222,65,2.44444444444444,0,2.63636363636364,1,4,3,4,4,6,5,4,5,3,3,2,2,4,3,3,2,4,3,3,2,2,2,2,2,2,2,2,3,4,2,3,2,2,3,2,4,10:33:44,2.6,2,0,5,3,3,3,3,4,3,4,3,4,3,4,4,4,4,1,4,13,2.16666666666667,3.45454545454545,4,4,4,4,3,3,3,3,2,4,4,5,5,4,5,2,4,5,3,5,1,5,2,4,5,5,1,2,3,2,3,4,3,3,3.23076923076923,2,2,2,1,0,4,4,5,0,3,1,4,2,1,1,2,8,2,1,1,1,2,1,2, , , , , , , , , , ,1,1,3,3,2,2,2,9,2,1,3,5,5,5,2,2,4,5,3,1,2,2,4,5,4,3,3,5,4,3,4,3,1,3,1,1,1,4,4,4,4,4,4,4,3,3,2,3,4,3,2,3,3,2,5,4,4,3,2,3,3,4,3,3,2,4,2.15384615384615,2,2,2,2,3,1,2,2,2,4,2,4,3,1,37.1,37.2,1,37.15,1,16,7,3,-.269325244907512,-.920034732819864,Tsinhua
1995,2,2,3,2,2,3,3,4,3,2,2,2,2,1,2,2,3.66666666666667,0,5,2.66666666666667,72,2.88888888888889,20,2.54545454545455,1,7,2,2,3,6,1,2,4,6,2,6,2,2,4,2,4,7,4,4,3,2,3,2,3,1,4,4,5,2,5,2,1,1,2,4,4,9:35:20,1.8,2,3,4,5,5,5,5,5,5,5,5,5,2,2,1,2,3,2,2,43,5.66666666666667,2.63636363636364,3,3,3,3,1,4,4,3,1,1,3,3,3,1,2,1,2,5,4,3,2,2,3,4,2,4,3,4,2,5,4,3,5,3,3.38461538461538,1,1,2,1,0,4,4,5,0,8,4,8,8,1,1,2,8,1,8,4,5,2,1,1,学生会, , , , ,7, , , , ,4,3,5,6,6,6,6,9,4,3,5,4,4,1,1,4,3,2,3,3,3,3,4,3,4,4,4,4,4,3,4,4,2,2,2,4,2,4,4,3,2,3,4,4,4,4,3,2,4,4,4,4,3,3,4,3,3,4,4,3,3,3,3,4,2,1,2.15384615384615,2,4,3,2,2,2,2,1,2,2,2,4,2,2,36.7,36.8,1,36.75,1,14,7,3,-.138038565635048,-.31757980955148,Tsinhua
1994,2,2,4,2,2,2,3,2,3,1,3,2,5,2,4,2,2.83333333333333,0,4.88888888888889,3.66666666666667,22,2.83333333333333,0,2.36363636363636,1,6,1,2,2,3,2,3,5,3,1,2,2,4,6,2,3,2,2,6,2,4,2,2,3,3,2,2,2,3,3,2,2,3,5,3,2,9:38:22,3,2,2,4,5,5,5,5,5,5,5,4,5,4,6,6,4,5,6,6,44,6.16666666666667,3.90909090909091,5,4,5,3,4,3,5,4,3,3,4,4,4,3,4,4,4,2,4,4,1,4,4,4,4,4,3,4,2,4,4,4,4,4,3.76923076923077,1,2,2,1,0,4,2,5,0,5,1,5,3,1,1,2,3,1,1,2,1,2,1,1,班级,学生艺术团,辩论队,读书会,跑步俱乐部,20,15,7,5,5,6,2,4,6,6,6,6, , ,2,4,4,4,2,3,3,4,3,4,2,3,4,2,4,4,4,3,5,5,4,4,4,2,2,2,2,2,2,2,2,2,4,4,4,4,4,3,2,4,3,4,4,2,3,4,3,4,4,2,2,4,3,4,4,4,2,1.76923076923077,2,2,2,2,2,1,2,2,2,2,2,4,1,1,35.8,36.3,1,36.05,1,8,7,3,-1.12268866017853,-.392886674960027,Tsinhua
1995,2,3,3,2,2,4,4,2,4,2,3,2,4,2,2,2,4.11111111111111,0,3.66666666666667,3.44444444444444,51,3.11111111111111,0,2.81818181818182,1,6,3,4,5,6,5,5,4,4,2,5,2,2,4,4,5,6,2,2,2,6,2,5,2,3,2,3,2,2,6,3,2,2,6,3,3,9:38:44,2.4,2,2,4,4,4,4,4,4,4,4,2,3,4,5,5,2,4,3,5,22,4.16666666666667,2.45454545454545,4,2,2,4,2,2,1,1,4,1,4,3,3,3,4,4,4,2,4,4,1,2,3,4,3,3,3,4,2,2,4,3,2,3,2.92307692307692,2,2,2,1,0,4,4,5,0,4,1,6,3,1,1,2,5,1,1,3,1,2,1,1,学生活动组织,志愿活动组织,社团活动,NA,ＮＡ,3,2,1, , ,4,2,4,5,4,3,4,9,2,2,4,4,4,4,2,2,4,4,3,3,2,2,4,4,4,4,4,4,4,3,4,4,2,3,2,2,4,4,2,4,2,2,4,4,4,4,4,2,4,4,4,2,4,2,4,4,4,2,4,2,4,4,4,2,2,4,2.46153846153846,3,1,4,3,3,2,3,2,3,3,2,4,2,1,35.4,36.4,1,35.9,1,7,7,3,.387108151454811,-.0163523479172872,Tsinhua
1996,3,2,4,2,3,3,3,3,3,3,2,1,1,2,3,2,3.38888888888889, ,4.88888888888889,3.55555555555556,72,2.5,0,2.81818181818182,1,4,4,4,6,6,2,4,2,4,2,1,2,4,2,4,4,4,2,4,2,2,2,2,2,2,1,2,3,2,4,2,2,4,4,2,3,10:30:07,1.8,2, ,4,5,5,5,5,5,5,4,5,5,4,4,4,2,2,2,6,30,4,2.90909090909091,3,3,4,3,3,3,2,3,3,3,2,4,4,3,4,2,3,4,4,4,2,4,3,3,3,4,1,4,3,5,5,2,5,2,3.38461538461538,1,1,2,1,0,4,4,5,0,8,1,5,4,1,1,2,3,1,1,1,3,2,1,1,班委会,学生会,老乡会,NA,NA,7,4,2, , ,6,2,2,4,4,3,5,9,1,2,2,3,4,2,2,3,3,4,3,1,3,3,2,3,4,3,3,4,4,2,4,4,2,1,1,1,1,4,4,1,4,4,3,4,5,3,2,2,2,4,4,3,2,1,4,2,1,3,4,2,2,4,4,4,3,1,2.15384615384615,2,2,3,2,2,1,3,3,2,2,2,5,3,1,35.5,36,1,35.75,1,14,7,3,-.466255263816209,-.844727867411316,Tsinhua
1992,1,2,1,3,1,1,2,2,1,1,4,4,4,3,5,2,3.88888888888889,0,3.55555555555556,3.88888888888889,51,1.55555555555556,0,1.72727272727273,1,6,3,2,2,6,3,6,4,6,2,6,2,2,1,6,6,5,2,2,5,1,1,1,1,2,1,1,1,1,2,1,1,1,1,2,3,10:30:17,3.6,2,6,4,4,4,4,4,4,3,2,3,4,2,2,2,2,2,1,1,15,4.5,3.36363636363636,2,4,2,5,2,3,5,4,4,4,2,4,4,2,4,4,4,4,4,5,1,2,4,4,3,5,1,4,1,3,3,2,5,3,3.07692307692308,1,2,2,1,0,4,4,5,0,4,1,8,4,1,1,2,4,1,1,1,1,2,1,2, , , , , , , , , , ,3,2,4,5,5,4,4,9,1,2,4,5,5,1,1,1,1,3,1,1,1,1,4,5,3,2,1,4,3,2,5,4,2,2,2,3,4,2,2,2,1,3,5,4,5,5,5,3,4,5,2,4,1,1,2,1,1,1,5,1,5,1,5,4,2,1,2.46153846153846,3,3,4,2,2,2,2,2,2,2,3,5,2,3,36.3,36.7,1,36.5,1,7,7,3,.124534792909882,-2.12494457935663,Tsinhua
1995,4,2,2,2,3,2,3,2,2,3,2,2,2,2,3,2,3.38888888888889,0,4.33333333333333,2.33333333333333,72,3.5,1,2.45454545454545,1,5,3,3,4,4,5,5,4,3,4,2,2,4,2,2,2,5,2,2,3,3,3,2,3,5,3,2,3,3,2,3,5,6,6,5,4,10:31:58,2.2,2,0,4,5,5,3,5,5,4,4,4,4,5,6,4,2,2,5,4,16,4.66666666666667,2.18181818181818,2,2,2,2,2,2,2,2,2,4,2,2,2,2,4,3,2,1,2,3,2,3,3,4,3,2,2,2,2,3,3,3,4,2,2.76923076923077,2,1,2,1,0,4,2,5,0,2,2,6,6,1,1,2,8,1,1,1,1,2,1,2,NA,na,na,na,na, , , , , ,6,3,5,3,4,6,6,9,3,3,5,5,5,2,2,3,2,5,2,2,2,2,3,5,4,3,2,3,3,3,3,3,3,3,2,1,4,5,2,3,2,3,1,2,4,3,2,4,4,4,3,3,3,4,4,3,2,2,2,2,4,3,4,3,4,2,2.46153846153846,2,3,2,3,3,2,3,2,2,3,3,2,2,2,36.9,37.2,1,37.05,1,14,7,3,-.466255263816209,.510795709942549,Tsinhua
1997,1,1,1,2,1,1,3,3,2,3,2,1,1,2,4,5,2.61111111111111,0,3.44444444444444,4.44444444444444,22,1.77777777777778,0,1.81818181818182,1,4,1,1,7,2,5,2,5,1,2,1,2,2,2,1,2,6,1,2,1,5,1,1,2,1,1,1,1,1,2,1,2,1,4,2,3,10:36:16,2.6,2,1.7,4,5,3,4,5,4,1,4,3,2,3,3,3,2,2,3,2,28,3,3.45454545454545,5,4,5,5,4,2,3,3,2,1,4,5,5,4,4,4,4,4,5,5,1,2,3,4,2,5,2,3,2,3,4,5,3,3,3.15384615384615,1,2,2,1,0,4,2,5,0,4,1,6,3,1,1,2,8,1,1,1,3,1,8,1,合唱队, , , , ,8, , , , ,3,2,2,2,2,4,3,9,2,2,2,5,5,1,1,1,3,5,4,1,3,4,5,4,5,4,5,4,2,1,4,3,3,3,3,1,1,5,5,3,4,1,4,4,5,5,5,1,5,2,4,5,2,4,5,5,5,4,4,4,5,5,4,2,1,5,3.30769230769231,5,4,4,2,2,2,3,5,4,2,4,5,2,4,36.3,36.5,1,36.4,1,8,7,3,-1.38526201872346,-1.82371711772244,Tsinhua
1995,2,2,4,2,1,3,2,1,2,2,1,2,2,2,3,2,3.66666666666667,0,3.88888888888889,2.77777777777778,74,2.94444444444444,0,2,1,5,4,3,4,5,2,3,5,4,2,3,4,4,3,2,6,5,2,3,1,2,2,2,2,2,2,6,4,2,7,2,2,2,6,3,3,10:42:58,2.2,2,.5,4,4,4,4,4,4,4,3,4,4,3,4,5,2,4,3,4,21,4.33333333333333,2.54545454545455,2,2,3,4,2,2,2,3,3,2,3,1,4,2,4,1,3,3,3,4,2,4,3,5,4,3,1,3,4,3,3,3,4,3,3.30769230769231,1,2,2,1,0,4,4,5,0,8,2,4,3,1,1,2,3,1,1,2,4,2,1,2,书法协会,NA,NA,NA,NA,2, , , , ,7,2,4,4,3,3,3,9,1,2,4,5,4,3,2,3,4,5,2,2,4,3,3,4,4,3,3,4,2,2,4,2,2,1,2,1,3,5,4,2,4,4,2,2,4,2,4,2,4,3,4,4,2,2,4,4,2,2,3,2,4,4,4,4,3,1,2.38461538461538,3,2,2,3,3,1,3,1,2,3,3,4,3,2,36.9,36.9,1,36.9,1,16,7,3,-.138038565635048,-.242272944142931,Tsinhua
1996,2,2,3,1,2,1,2,2,2,1,1,2,3,2,2,1,4.27777777777778,0,2.66666666666667,2,78,4.55555555555556,0,1.72727272727273,1,4,5,3,5,6,4,5,5,3,5,2,4,4,5,2,6,6,3,5,4,6,5,4,5,6,5,6,3,2,6,2,5,5,5,6,2,10:51:07,2,2,0,4,3,3,3,3,3,3,2,2,2,4,4,2,1,1,4,3,21,3.33333333333333,1.81818181818182,3,3,3,4,1,1,1,1,1,1,1,1,3,1,1,2,1,4,3,2,2,5,4,4,5,1,3,2,3,4,4,5,4,4,3.69230769230769,2,2,2,1,0,4,4,5,0,6,1,6,1,1,1,2,3,1,1,1,1,2,1,1,IT技术学习团体,好友团体,NA,NA,NA,2,7, , , ,3,2,2,4,4,3,3,9,1,2,2,4,4,2,2,2,2,4,2,1,1,1,5,3,4,2,4,4,3,3,4,4,3,3,3,2,4,3,2,3,1,5,2,4,4,3,4,2,4,2,4,4,2,3,2,4,2,3,3,2,2,3,3,3,5,1,1.38461538461538,1,2,2,2,1,1,1,1,1,2,1,4,2,1,36.8,36.7,1,36.75,1,17,7,3,.584038170363508,1.94162615270496,Tsinhua
1995,2,2,4,1,2,4,4,2,2,3,2,2,2,1,2,2,2.33333333333333,0,4.66666666666667,3.88888888888889,66,3.55555555555556,0,2.54545454545455,1,2,1,4,2,2,2,2,2,2,2,1,2,2,3,5,2,5,1,3,2,5,3,2,7,7,2,4,2,1,6,2,7,2,5,1,3,10:55:15,1.8,2,6,4,5,5,5,5,5,4,4,4,5,5,5,3,5,5,5,5,25,3.16666666666667,3.09090909090909,4,4,4,4,2,4,2,2,2,2,4,4,3,4,4,4,5,4,3,4,1,4,4,5,4,3,1,5,4,3,4,4,4,3,3.69230769230769,2,2,2,1,0,4,4,5,0,8,3,5,4,1,1,2,4,1,1,1,3,1,3,2,跆拳道协会,NA,NA,NA,NA,4, , , , ,3,1,1,4,3,3,3,9,1,1,1,5,4,2,2,4,3,5,4,1,5,4,2,5,5,4,4,4,4,4,4,4,2,2,2,2,3,5,4,2,4,4,2,5,4,2,2,1,3,4,5,4,5,5,4,5,5,4,5,5,4,5,5,2,4,2,2.53846153846154,3,4,4,2,2,2,2,3,2,2,3,4,2,2,36.4,37,1,36.7,1,13,7,3,-1.71347871690462,.586102575351097,Tsinhua
1995,3,3,3,2,2,4,4,3,4,2,2,1,4,2,4,2,4.05555555555556,24,5,2.55555555555556,91,3.72222222222222,0,2.90909090909091,1,2,4,2,5,6,2,5,4,4,5,6,5,2,2,5,3,7,4,4,2,6,2,3,5,6,2,6,2,6,2,4,6,2,5,2,2,10:58:31,2.6,2,38,4,5,5,5,5,5,5,5,5,5,3,6,7,2,3,3,4,36,6.33333333333333,1,1,1,1,1,1,1,1,1,1,1,1,2,2,1,4,2,1,3,4,4,2,3,3,3,2,5,1,3,1,2,2,3,3,3,2.61538461538462,1,2,2,1,0,4,4,5,0,4,1,6,3,1,2,2,8,1,1,8,1,2,1,1,英语俱乐部,体育部,NA,NA,NA,7,7, , , ,3,1,4,7,7,7,7,9,2,1,4,4,4,2,2,2,2,4,5,1,2,3,5,5,5,3,3,5,5,5,5,5,4,3,3,3,3,3,3,4,3,5,2,1,4,4,5,2,4,3,5,4,2,2,4,4,3,3,3,2,4,3,3,3,2,4,3.61538461538462,3,5,4,3,3,3,3,5,3,3,4,5,3,5,36.3,36.4,1,36.35,1,13,7,3,.321464811818579,.812023171576742,Tsinhua
1994,1,4,2,4,4,3,3,3,2,3,4,2,3,3,3,4,3.66666666666667,0,2.88888888888889,3.55555555555556,87,3.88888888888889,9,3,1,3,5,4,4,4,2,2,4,5,4,4,2,2,3,4,6,4,4,3,2,5,5,4,6,4,3,3,4,3,5,4,7,4,4,2,2,11:00:51,3,2,1,4,2,4,3,3,3,3,4,2,2,2,3,4,5,4,5,3, ,3.83333333333333,3.18181818181818,4,4,2,1,2,3,4,4,4,3,4,4,4,1,2,4,2,5,5,5,2,2,3,2,2,4,3,3,3,2,4,3,2,4,2.84615384615385,1,1,2,1,0,4,4,5,0,6,3,5,1,1,1,2,1,2,1,1,1,1,2,2,na,na,na,na,na,0,0,0,0,0,7,2,2,4,4,3,4,9,1,2,2,4,3,3,4,4,3,2,4,2,4,2,4,2,4,4,3,2,4,4,4,2,4,3,3,4,4,2,4,2,4,2,4,3,3,3,4,3,4,3,3,3,4,5,1,4,4,4,3,4,4,1,4,5,3,1,3,4,3,3,3,2,3,2,3,3,3,4,4,2,4,36.4,37.1,1,36.75,1,17,7,3,-.138038565635048,1.03794376780239,Tsinhua
1995,1,4,4,3,4,2,2,3,3,2,3,2,3,1,4,2,2.88888888888889,0,4.33333333333333,1.55555555555556,91,2.83333333333333,0,2.81818181818182,1,4,2,1,2,6,4,4,2,2,2,1,2,6,1,1,5,5,2,2,2,2,6,2,4,6,3,2,2,2,5,3,2,2,2,2,2,11:05:53,2.4,2,1,4,5,5,5,5,5,3,3,3,5,4,5,4,2,2,2,3,16,2,1.90909090909091,4,1,3,4,1,1,1,1,1,1,3,1,2,2,2,1,1,1,1,3,2,5,4,3,4,5,1,3,2,2,5,4,2,3,3.30769230769231,1,2,2,1,0,4,4,5,0,8,3,6,3,1,1,2,2,1,1,1,1,2,1,2, , , , , , , , , , ,4,2,2,1,2,2,2,9,1,2,2,5,5,1,1,1,1,3,3,3,3,3,3,3,3,3,3,5,5,4,4,4,2,1,2,4,3,2,2,3,4,4,1,1,2,4,4,4,4,3,4,3,2,1,1,1,1,2,3,1,1,3,1,4,3,4,2.38461538461538,2,4,3,2,2,1,2,4,2,1,4,5,2,2,36.7,36.7,1,36.7,1,13,7,3,-1.0570453205423,-.392886674960027,Tsinhua
1995,2,2,2,2,2,3,3,2,3,2,3,3,3,2,3,2,2.44444444444444,0,5,3.44444444444444,72,2.22222222222222,0,2.36363636363636,1,2,2,2,2,6,2,2,2,2,2,2,2,4,2,2,4,2,2,2,2,2,2,2,4,2,3,2,2,2,3,2,2,2,2,2,2,11:07:14,2.6,2,0,4,5,5,5,5,5,5,5,5,5,4,4,3,1,2,1,3,24,5.83333333333333,3,5,4,4,4,3,2,2,2,2,2,3,4,4,2,4,2,2,4,4,5,2,4,4,4,4,4,2,4,3,4,4,3,3,3,3.53846153846154,1,2,2,1,0,4,2,5,0,5,4,5,3,1,1,2,3,1,4,7,1,2,1,1,志愿者协会,NA,NA,NA,NA, , , , , ,5,2,4,6,6,5,5,9,1,2,4,4,4,2,2,3,2,5,2,2,3,2,2,5,4,3,2,4,4,2,4,4,4,4,2,2,3,4,3,2,2,2,2,2,3,4,2,2,3,4,3,4,3,3,5,3,3,2,4,2,4,4,2,2,2,3,2.69230769230769,3,2,2,4,4,3,3,1,3,5,2,4,2,1,36.3,36.6,1,36.45,1,14,7,3,-1.58219203763216,-1.22126219445406,Tsinhua
1993,1,2,1,2,2,1,2,2,3,2,2,3,3,1,4,2,4.33333333333333,0,4.33333333333333,2.44444444444444,74,2.38888888888889,0,1.81818181818182,1,7,4,5,5,7,2,5,5,4,5,2,2,3,5,5,5,5,2,4,2,2,1,1,3,2,2,3,3,2,2,2,4,2,2,2,4,11:11:01,2.6,2,1.3,4,5,4,4,4,5,5,4,4,4,2,2,3,2,2,2,2,20,5,1.54545454545455,4,2,2,2,1,1,1,1,1,1,1,3,4,1,3,1,2,2,2,4,2,3,3,5,4,5,2,4,2,3,4,4,3,4,3.53846153846154,1,2,2,1,0,4,4,5,0,4,3,4,4,1,1,2,5,1,1,1,4,2,1,2,NA,NA,NA,NA,NA, , , , , ,5,4,4,5,5,5,5,9,2,4,4,4,4,2,3,3,2,4,3,2,3,2,3,5,4,4,3,4,4,4,4,3,3,2,2,1,3,5,2,3,1,4,2,4,4,3,4,3,3,3,3,4,3,2,3,4,3,3,3,3,3,4,3,4,3,1,1.92307692307692,2,1,1,2,2,2,2,1,4,3,1,5,2,2,36.3,36.5,1,36.4,1,16,7,3,.64968150999974,-.995341598228413,Tsinhua
1995,2,3,5,1,5,4,5,1,1,3,1,2,5,1,4,1,3,0,3.55555555555556,3.88888888888889,87,2.22222222222222,0,2.81818181818182,1,3,2,3,2,6,1,6,6,6,2,5,1,2,2,2,2,2,1,2,2,2,1,2,1,2,2,4,2,2,2,2,2,1,2,6,3,11:11:28,2.6,2,1,4,4,3,4,3,4,2,4,4,4,4,6,4,6,4,3,4,17,3,3.45454545454545,5,5,5,3,1,4,1,4,1,4,5,5,4,3,5,4,3,2,4,5,1,4,4,4,4,4,1,4,2,3,3,4,3,3,3.30769230769231,2,2,2,1,0,4,4,5,0,6,3,5,3,1,1,2,3,3,1,2,1,2,1,2, , , , , , , , , , ,2,1,1,4,3,2,2,9,1,1,1,4,5,2,1,2,2,5,2,1,4,2,4,4,4,4,2,4,4,4,5,5,2,2,1,1,1,5,3,2,1,3,2,5,4,2,1,1,4,2,4,4,5,1,5,5,5,4,4,2,5,5,3,3,5,1,2.69230769230769,1,2,2,3,4,2,4,2,3,4,2,3,4,2,37.4,37.3,1,37.35,1,17,7,3,-.925758641269835,-1.22126219445406,Tsinhua
1995,4,2,4,2,4,5,4,4,4,5,4,2,3,1,3,1,4.94444444444444,0,4.11111111111111,3.33333333333333,69,3.38888888888889,0,3.81818181818182,1,6,5,6,6,5,6,6,4,4,5,3,6,4,4,6,4,4,5,6,3,4,2,4,5,6,3,3,2,2,3,3,4,2,2,3,4,11:12:02,2,2,0,4,4,4,3,4,5,5,4,4,4,3,2,2,2,2,2,2,20,3,2.27272727272727,4,3,2,2,2,3,1,3,2,1,2,4,4,2,3,3,4,4,3,3,1,4,4,5,3,4,1,3,4,5,5,3,5,5,3.92307692307692,2,2,2,1,0,4,4,4,1,3,3,3,2,1,1,2,8,1,1,3,3,2,1,1, , , , , , , , , , ,3,2,4,3,3,3,3,10,2,2,4,4,4,4,2,3,4,4,2,1,3,3,4,4,4,4,4,4,4,4,4,4,4,4,3,3,4,2,2,2,3,2,4,2,4,4,4,3,4,4,4,4,4,4,4,4,4,4,4,4,2,2,3,4,4,3,2.69230769230769,3,3,4,2,2,2,3,3,2,2,3,4,3,3,36.4,36.1,1,36.25,1,8,7,3,1.3717582459983,.360181979125453,Tsinhua
1994,3,3,3,3,4,4,3,4,3,2,3,2,2,1,4,1,3.55555555555556,0,3.33333333333333,3,53,3.27777777777778,0,3.18181818181818,1,6,3,2,5,6,3,4,5,3,2,3,2,4,2,4,3,3,4,6,3,4,2,2,3,4,5,3,3,2,6,2,5,3,2,2,2,11:15:57,2,2,4,4,3,2,2,3,4,5,4,3,4,3,3,4,3,2,5,3,30,4.5,2.54545454545455,4,3,2,4,2,2,2,2,3,2,2,2,3,2,4,4,4,2,4,2,2,3,4,4,5,4,1,5,2,3,4,4,3,3,3.46153846153846,2,2,2,1,0,4,4,5,0,8,2,6,3,1,3,2,6,1,1,3,5,2,1,2,双学位课程,吉他教学,公司组织,NA,NA,3,2,2, , ,3,2,4,6,5,3,4,9,3,2,4,5,4,2,3,2,4,4,2,1,2,2,4,4,4,3,4,5,3,3,4,2,3,4,1,1,2,4,4,1,4,4,5,5,4,2,3,2,4,2,4,4,4,2,4,4,3,2,4,4,5,5,5,4,3,4,2.23076923076923,2,3,2,2,2,2,3,1,3,2,3,4,2,2,36.7,36.4,1,36.55,1,5,7,3,-.269325244907512,.209568248308357,Tsinhua
1993,2,2,2,2,2,3,2,2,2,2,3,2,3,2,2,2,2.83333333333333,1,5,2.11111111111111,71,2.77777777777778,0,2.18181818181818,1,2,2,2,2,4,4,3,6,2,5,3,3,2,2,2,2,3,2,4,4,2,4,2,2,2,2,2,2,3,4,2,2,3,3,4,3,11:17:52,2.2,2,3,4,5,5,5,5,5,5,5,5,5,3,3,2,2,2,2,2,21,5.16666666666667,2.90909090909091,4,3,4,3,4,2,2,2,2,2,4,2,2,2,2,2,2,2,2,3,1,5,4,4,4,3,5,2,2,4,4,4,4,4,3.76923076923077,2,2,2,1,0,4,4,5,0,4,2,4,4,1,1,2,3,1,1,2,1,2,1,2,健身房,学生,NA,NA,NA,1,3, , , ,6,2,2,5,5,5,5,9,1,2,2,4,4,2,2,2,2,3,2,2,2,2,2,2,3,2,3,4,4,3,4,4,2,2,2,2,4,2,2,2,2,4,2,2,4,4,3,2,4,4,4,3,2,2,4,2,4,3,4,3,3,3,3,4,4,2,2.76923076923077,3,3,2,2,3,2,2,4,3,4,3,4,4,1,36.4,36.4,1,36.4,1,14,7,3,-1.12268866017853,-.468193540368576,Tsinhua
1994,2,2,2,2,2,2,2,2,2,2,2,2,3,2,2,2,2.94444444444444,0,3.88888888888889,3.11111111111111,60,3,0,2,1,3,3,2,5,3,3,3,2,3,3,5,5,2,2,2,2,2,3,4,3,3,3,3,3,3,2,2,3,2,5,3,2,3,4,3,3,11:18:47,2.2,2,0,4,4,4,4,4,4,4,3,4,4,4,6,4,1,2,2,2, ,5.33333333333333,2.18181818181818,3,2,2,3,2,2,2,2,2,2,2,4,4,2,4,2,2,4,2,4,2,4,3,4,4,4,3,4,4,4,4,4,4,4,3.84615384615385,2,2,2,1,0,4,4,5,0,2,1,5,4,1,1,1,1,1,1,1,8,2,1,2,NA,NA,NA,NA,NA,0,0,0,0,0,6,2,4,5,6,5,5,9,2,2,4,4,4,2,4,4,4,4,2,2,3,3,3,4,4,3,3,4,4,3,5,4,2,2,2,1,3,3,3,2,2,3,2,2,4,2,2,2,3,2,4,3,2,2,4,4,4,3,4,4,4,4,4,4,2,4,1.69230769230769,1,1,1,2,2,2,3,1,2,2,1,4,2,2,36.4,36.9,1,36.65,1,13,7,3,-.991401980906067,-.166966078734383,Tsinhua
1994,2,4,1,3,3,1,2,2,4,2,1,2,2,2,1,3,2.88888888888889,0,4.11111111111111,2.55555555555556,87,2.05555555555556,0,2.27272727272727,1,6,1,6,7,6,1,1,6,2,1,1,6,1,1,1,1,3,1,1,7,2,2,1,1,6,1,2,1,2,1,2,1,2,2,1,2,11:23:34,2,2,16,4,5,5,4,2,4,5,4,4,4,2,2,1,2,2,2,5, ,4.16666666666667,2.63636363636364,4,4,4,4,2,3,2,2,1,1,2,1,4,2,4,1,2,1,4,4,1,4,3,2,2,2,1,2,2,3,5,2,2,3,2.53846153846154,1,2,2,1,0,4,2,4,1,5,2,4,4,1,1,2,1,1,1,1,1,2,1,1,商学院党支部, , , , ,0, , , , ,3,4,4,4,5,3,4,10,1,4,4,4,4,1,1,2,2,4,2,4,3,2,3,4,4,2,1,5,4,1,4,4,1,1,1,1,2,4,1,2,4,4,1,4,4,4,4,2,4,5,5,4,1,2,2,2,2,4,1,2,1,4,1,2,2,2,2.38461538461538,3,2,3,2,3,2,2,4,2,3,2,4,2,1,36.4,36.7,1,36.55,1,17,7,3,-1.0570453205423,-1.4471827906797,Tsinhua
1994,4,2,3,4,5,3,1,4,3,4,5,3,4,2,2,2,3.83333333333333,0,4.22222222222222,2.33333333333333,86,2.83333333333333,0,3.45454545454545,1,5,5,2,3,4,7,4,1,4,3,3,5,4,5,2,4,6,2,3,2,1,4,2,3,6,4,4,3,1,1,1,6,2,1,2,5,11:57:26,2.6,2,0,4,5,4,4,3,5,5,4,4,4,2,2,5,3,3,3,2, ,5.5,2.18181818181818,4,2,2,2,2,2,2,1,2,3,2,2,3,3,2,1,2,2,2,4,2,4,3,3,4,2,1,2,2,3,2,1,3,4,2.61538461538462,2,2,2,1,0,4,2,5,0,3,3,3,3,1,1,2,3,3,1,1,1,2,1,2,NA,NA,NA,NA,NA,0,0,0,0,0,7,2,4,4,7,6,5,9,1,2,4,4,5,2,2,3,3,4,2,2,2,4,5,5,2,2,1,3,4,2,4,4,4,2,2,2,2,3,3,1,4,4,2,5,4,3,2,2,3,4,4,4,2,3,4,3,2,2,2,2,3,3,3,4,2,4,3.23076923076923,2,5,2,4,3,4,3,3,5,3,3,4,2,3,36.8,37.2,1,37,1,16,7,3,.0588914532736497,-.392886674960027,Tsinhua
1994,3,3,3,2,2,3,2,3,3,3,3,4,2,2,3,4,4.11111111111111,0,3.66666666666667,3.77777777777778,70,4,0,2.72727272727273,1,4,5,4,5,3,4,4,4,5,3,3,4,4,3,5,5,4,5,5,4,4,5,5,3,4,3,3,4,3,4,4,5,3,3,5,5,12:08:44,3,2, ,4,3,4,4,5,5,3,3,3,3,2,2,4,2,2,3,2,37,5.83333333333333,4.09090909090909,4,4,3,4,4,5,4,4,3,5,5,4,4,4,4,4,3,4,4,3,2,2,1,3,5,2,5,1,3,2,5,3,3,5,3.07692307692308,2,2,2,1,0,4,4,5,0,8,4,8,5,1,1,2,8,1,1,8,6,1,4,1,排球协会,武术协会,语言爱好者协会, , ,3, , , , ,3,4,4,7,7,6,6,9,4,4,4,3,4,4,4,4,4,2,2,3,4,2,4,4,2,4,4,3,4,4,4,4,2,3,2,4,2,3,3,3,3,4,2,3,3,3,3,3,2,4,3,4,3,3,2,5,3,4,3,3,5,3,3,4,2,3,2.53846153846154,2,2,4,2,2,2,2,1,3,3,4,3,2,4,36.3,36.6,1,36.45,1,14,7,3,.387108151454811,1.18855749861948,Tsinhua
1995,2,2,3,2,3,2,3,4,3,2,4,3,2,2,3,2,3.72222222222222,0,4.66666666666667,2.55555555555556,73,4.16666666666667,0,2.72727272727273,1,4,5,4,5,4,3,4,5,3,4,4,3,3,3,4,3,4,2,6,2,4,5,4,6,6,3,3,4,2,5,2,6,5,4,5,3,13:10:35,2.4,2,0,4,5,5,5,5,5,5,4,4,4,3,3,4,2,2,2,5, ,3.66666666666667,2.81818181818182,4,4,4,3,2,2,2,2,2,2,4,3,2,2,3,3,3,2,2,3,1,4,3,4,4,4,1,3,2,3,4,3,2,4,3.15384615384615,2,2,2,1,0,4,4,5,0,3,3,6,4,1,1,2,3,1,1,3,1,2,1,2,青年志愿者协会,NA,NA,NA,NA,1,0,0,0,0,4,3,4,4,3,4,3,10,1,3,4,4,4,4,2,2,4,4,4,4,2,2,3,2,4,2,4,4,4,2,4,4,2,2,3,2,2,4,4,2,4,4,2,2,2,3,2,2,4,4,4,4,3,2,4,4,3,2,3,3,4,4,4,4,2,3,2,2,1,2,2,2,1,3,2,2,3,1,2,3,2,36.3,36.4,1,36.35,1,16,7,3,-.072395225998815,1.41447809484513,Tsinhua
1990,4,2,4,2,2,2,2,4,4,3,4,4,2,1,2,2,5.5,4,2.66666666666667,4.11111111111111,51,1.77777777777778,0,3,1,7,7,7,7,7,7,6,5,6,2,6,3,6,2,5,6,6,4,2,1,2,2,3,1,3,2,1,2,2,1,1,3,2,1,2,1,9:23:52,2.2,2,4,3,4,3,2,2,2,4,2,2,3,4,5,7,3,4,2,4,16,6.83333333333333,4,4,4,5,4,5,4,4,4,4,1,5,5,4,2,4,4,4,5,4,5,2,4,5,3,5,4,2,5,2,4,4,3,2,4,3.61538461538462,1,2,2,1,0,4,2,5,0,1,0,5,3,1,1,1,1,3,4,3,1,2,1,2, , , , , , , , , , ,6,3,2,7,7,7,7,8,0,3,2,4,3,1,4,4,2,4,2,4,2,2,4,4,2,2,2,4,2,4,4,3,3,3,2,3,4,4,2,5,2,4,4,4,4,5,5,4,4,2,4,4,2,4,4,2,2,2,2,4,4,2,4,4,2,2,3.23076923076923,4,5,5,2,2,2,3,3,2,3,5,5,2,4,36.5,36.6,1,36.55,1,7,7,3,2.02819164236062,-1.82371711772244,Tsinhua
1996,3,2,3,4,2,3,3,2,4,4,3,2,4,2,2,3,5.27777777777778,0,3.88888888888889,4,82,3.83333333333333,0,3,1,5,6,7,6,7,4,5,5,5,6,5,4,6,4,6,5,5,4,4,3,5,4,3,4,4,3,4,3,2,3,3,5,4,5,4,6,9:27:49,2.6,2,3,3,4,4,4,4,4,4,3,4,4,3,2,2,2,2,3,2,34,3.66666666666667,4,4,4,4,4,4,4,4,4,4,4,4,4,4,4,4,4,4,4,4,4,2,2,2,4,3,3,2,2,2,2,4,2,3,2,2.53846153846154,2,2,2,1,0,4,4,5,0,7,3,7,5,1,1,2,8,1,1,8,1,1,3,1,学生会,青传, , , ,4,3, , , ,2,2,3,4,4,4,4,9,3,2,3,4,4,2,2,3,3,4,3,1,2,3,2,4,4,3,4,4,4,3,4,4,2,2,2,2,2,4,4,3,2,2,2,3,2,3,3,3,4,3,4,4,4,3,4,4,4,4,4,4,3,4,4,4,3,3,2.61538461538462,2,2,2,3,3,2,3,3,3,4,1,2,3,3,36.3,36.4,1,36.35,1,12,7,3,1.76561828381569,.962636902393838,Tsinhua
1992,2,2,1,2,2,2,3,2,3,2,2,2,2,2,3,2,2.88888888888889,0,4.33333333333333,2.66666666666667,51,2.44444444444444,0,2.09090909090909,1,6,2,2,2,6,2,3,4,3,2,2,2,2,2,2,3,5,2,3,2,4,2,2,2,2,2,2,2,2,3,2,2,2,4,3,3,9:38:28,2.2,2,2,3,4,4,4,4,4,5,5,4,5,4,1,6,4,4,4,4,20,5.33333333333333,3,4,4,4,3,2,2,2,2,4,2,4,3,2,2,4,2,2,2,3,4,1,4,4,5,4,3,1,4,3,4,3,4,4,3,3.53846153846154,2,2,2,1,0,4,4,4,1,8,2,7,3,1,1,2,8,3,1,3,3,2,1,2, , , , , , , , , , ,4,3,4,5,6,6,5,10,2,3,4,4,4,2,2,2,2,4,4,3,2,3,4,4,3,4,4,4,4,3,4,4,2,2,2,1,3,4,4,2,4,4,4,4,4,4,2,2,4,4,4,3,4,2,4,4,4,4,4,2,4,4,3,4,2,4,2.38461538461538,1,4,3,2,3,2,2,2,2,2,4,4,2,2,36.6,36.9,1,36.75,1,7,7,3,-1.0570453205423,-.920034732819864,Tsinhua
1992,2,2,3,2,2,2,3,2,2,2,2,2,2,2,1,4,3.05555555555556,0,4.66666666666667,2.77777777777778,51,2.22222222222222,0,2.18181818181818,1,6,2,2,3,6,4,2,5,4,2,2,2,4,2,2,2,3,2,6,2,2,2,2,2,2,2,2,2,2,2,2,2,2,2,2,2,9:39:27,2.2,2,1,3,5,5,4,5,5,5,3,5,5,4,4,6,2,3,3,3,15,3.83333333333333,3.27272727272727,4,4,4,4,3,2,4,2,3,2,4,4,3,2,2,2,2,3,4,3,1,3,3,3,5,4,1,3,3,3,4,2,4,3,3.15384615384615,1,2,2,1,0,4,2,5,0,3,2,5,2,1,1,2,8,1,1,1,4,2,1,2, , , , , , , , , , ,2,3,3,4,5,4,4,9,2,3,3,3,4,2,2,3,2,4,3,2,2,2,2,4,4,2,2,4,4,3,4,4,4,4,2,1,2,4,4,2,4,2,3,3,3,4,2,2,4,2,4,4,3,2,4,2,2,2,4,2,3,4,4,3,2,3,2.30769230769231,2,3,2,2,2,2,3,2,2,3,2,4,2,3,36.7,36.8,1,36.75,1,7,7,3,-.860115301633603,-1.22126219445406,Tsinhua
1995,2,2,2,2,2,2,2,2,2,2,2,2,2,2,3,2,3.72222222222222,0,3.77777777777778,3.22222222222222,21,3.5,0,2,1,3,2,3,3,5,5,4,5,4,4,3,3,5,3,5,2,6,2,2,3,5,3,3,4,3,3,3,3,3,5,3,5,3,5,3,4,9:39:38,2.2,2,2,3,4,4,3,4,4,4,3,4,4,5,8,6,2,2,5,3,38,5.83333333333333,3.36363636363636,4,4,4,4,2,3,2,3,4,3,4,3,3,2,4,4,4,2,3,4,1,3,4,4,3,4,1,4,4,3,4,3,4,3,3.38461538461538,1,2,2,1,0,4,4,5,0,3,2,4,4,2,4,2,4,1,1,1,1,1,8,2,志愿中心,院团委,NA,NA,NA,9,5, , , ,6,4,4,6,6,6,6,9,2,4,4,5,4,2,4,4,3,5,4,2,3,2,2,4,4,3,4,4,3,4,4,4,2,3,2,1,4,4,3,2,4,5,2,5,5,4,3,2,4,4,4,4,2,3,4,4,4,4,3,4,4,4,4,4,2,4,2,2,3,3,2,2,1,2,2,2,3,1,4,2,1,35,36.5,1,35.75,1,11,7,3,-.072395225998815,.510795709942549,Tsinhua
1994,2,2,2,3,2,2,2,2,3,2,3,2,3,2,3,2,3.66666666666667,0,4.77777777777778,3.77777777777778,22,2.77777777777778,0,2.27272727272727,1,5,4,3,4,5,5,3,4,2,3,4,3,3,3,3,4,5,3,3,2,3,3,3,3,3,3,3,2,3,3,3,3,3,3,2,2,9:39:57,2.4,2,1,3,5,5,5,4,5,5,5,4,5,4,6,4,4,4,5,6,13,4.66666666666667,3,4,3,4,3,4,2,3,2,3,2,3,4,4,4,4,4,4,3,4,3,1,3,4,4,3,4,2,4,2,4,4,3,2,4,3.30769230769231,2,2,2,1,0,2,2,5,0,5,3,5,2,1,1,2,4,1,1,1,1,2,1,2,NA,NA,NA,NA,NA, , , , , ,6,2,4,4,5,5,5,9,1,2,4,4,4,3,3,3,3,4,2,2,2,2,4,4,4,4,4,4,4,3,4,4,2,2,2,2,4,4,2,3,4,2,2,3,3,3,3,2,4,2,4,4,4,2,4,4,4,3,4,2,4,4,4,3,2,4,2.76923076923077,3,3,3,2,2,2,3,4,3,3,3,4,2,3,37,37,1,37,1,8,7,3,-.138038565635048,-.468193540368576,Tsinhua
1992,1,1,2,2,3,1,3,2,1,2,1,3,3,1,1,2,2,0,5,2.55555555555556,21,1.44444444444444,0,1.72727272727273,1,4,1,1,1,4,1,1,4,1,1,1,1,1,1,1,6,5,1,1,1,1,2,1,2,3,2,1,1,1,1,1,4,1,1,1,1,9:41:21,2,2,0,3,5,5,5,5,5,5,5,5,5,3,3,4,2,2,1,2,15,4,2.45454545454545,4,4,4,4,1,1,1,1,2,1,4,2,3,1,3,4,2,4,2,2,1,5,5,4,5,5,2,5,2,4,4,4,3,4,4,2,2,2,1,0,4,4,5,0,3,1,4,3,1,1,2,8,1,1,1,2,2,1,2,NA,NA,NA,NA,NA, , , , , ,3,1,3,4,4,3,3,9,2,1,3,4,5,5,1,1,4,5,3,1,2,1,2,5,3,2,3,4,4,2,4,4,1,1,1,1,1,3,2,1,5,5,3,5,5,5,2,2,4,3,4,4,2,1,5,2,1,1,1,1,3,5,2,3,2,1,2.53846153846154,2,3,3,3,3,1,2,3,4,3,3,5,1,2,36.6,36.7,1,36.65,1,11,7,3,-2.10733875472202,-2.27555831017373,Tsinhua
1993,2,2,2,2,2,1,2,2,3,2,2,3,4,2,2,2,2.66666666666667,0,4.77777777777778,2.77777777777778,22,2.77777777777778,0,2,1,5,2,2,2,5,2,1,2,3,4,3,2,2,2,2,2,5,2,3,3,3,2,2,2,2,3,3,3,3,3,3,3,3,2,3,4,9:42:15,2.6,2,4,3,5,5,5,4,5,4,5,5,5,5,8,7,2,3,1,6,28,7,2,4,1,2,2,1,1,1,1,4,1,4,4,2,2,4,2,2,4,2,3,2,4,5,3,2,2,4,4,3,4,4,3,5,2,3.46153846153846,2,2,2,1,0,4,4,5,0,7,2,8,6,1,1,2,8,1,1,1,4,2,1,1,研会, , , , ,7, , , , ,7,1,2,7,7,7,7,9,3,1,2,3,4,4,2,2,4,5,2,2,4,4,3,4,4,4,4,4,3,4,5,4,2,2,2,2,1,4,4,1,2,4,4,5,5,2,2,1,2,2,4,3,4,1,4,2,2,2,3,2,4,3,4,3,2,5,2.38461538461538,2,4,4,2,2,2,2,2,3,2,2,4,2,2,36.8,36.7,1,36.75,1,8,7,3,-1.31961867908723,-.468193540368576,Tsinhua
1995,2,1,4,3,2,4,2,3,2,2,1,2,2,2,3,2,4.55555555555556,0,4.33333333333333,4.22222222222222,22,1.77777777777778,0,2.36363636363636,1,7,4,4,5,4,5,4,4,6,6,5,2,5,1,5,7,5,3,1,1,1,2,2,4,1,3,3,2,1,2,1,3,1,1,1,2,9:43:29,2.2,2,3,3,4,4,4,4,4,5,5,5,4,4,5,4,4,4,2,2,16,7,2.63636363636364,4,2,4,3,2,2,2,3,2,2,3,4,4,2,5,5,5,4,5,4,2,3,4,4,4,4,3,4,3,5,5,4,3,4,3.84615384615385,2,2,2,1,0,4,4,5,0,3,1,8,5,1,1,2,8,1,1,1,1,2,1,2, , , , , , , , , , ,7,1,5,7,7,7,7,9,3,1,5,5,5,5,4,2,5,5,3,1,1,2,3,5,4,5,3,5,3,2,3,2,1,3,2,2,3,5,5,2,4,5,4,3,2,2,1,1,2,1,1,4,1,1,4,4,2,4,3,1,3,5,2,2,1,5,3.15384615384615,4,4,5,3,2,2,3,3,4,3,1,5,3,4,36.3,36.2,1,36.25,1,8,7,3,.912254868544669,-1.82371711772244,Tsinhua
1995,2,2,1,2,2,2,2,2,3,3,2,4,2,1,2,2,2.72222222222222,0,4,2.66666666666667,74,2.27777777777778,0,2.09090909090909,1,4,1,3,1,5,5,1,4,1,4,1,1,4,2,1,4,6,1,2,1,3,1,1,5,1,1,1,1,1,5,1,4,5,3,1,4,9:49:18,2.2,2,0,3,4,4,4,4,4,4,4,4,4,3,4,4,2,3,1,4, ,2.5,2.54545454545455,4,2,3,2,4,2,2,2,2,2,3,4,4,1,4,2,3,1,1,4,2,4,3,3,3,4,3,2,3,3,4,3,3,2,3.07692307692308,2,2,2,1,0,4,2,5,0,4,4,7,5,1,1,2,8,1,1,8,4,2,1,2,N,N,N,N,N,0,0,0,0,0,2,2,4,3,2,3,3,9,3,2,4,5,5,3,3,3,3,4,2,2,2,2,3,4,3,3,3,4,4,3,4,4,2,2,2,4,3,4,3,3,2,4,2,4,4,4,4,2,4,3,3,4,3,3,5,3,4,3,4,2,4,4,3,4,4,4,3.30769230769231,2,4,4,3,4,3,3,4,4,4,3,3,3,2,36.6,36.7,1,36.65,1,16,7,3,-1.253975339451,-1.14595532904551,Tsinhua
1995,2,2,1,2,3,2,2,2,3,2,2,2,2,2,3,2,3.44444444444444,0,4,3,21,2.94444444444444,0,2.09090909090909,1,5,3,4,5,4,5,4,3,4,2,2,2,2,3,4,3,5,2,4,2,5,3,2,2,3,2,4,2,2,3,2,3,4,5,2,3,10:03:19,2.2,2,0,3,4,4,4,4,4,4,4,4,4,5,8,6,5,6,6,6,24,6,2.90909090909091,3,2,4,3,2,3,3,3,3,2,4,3,4,2,4,2,2,3,3,4,1,4,4,3,3,3,3,2,4,4,3,3,4,2,3.23076923076923,2,2,2,1,0,4,4,5,0,4,2,4,4,1,1,2,3,1,1,1,4,2,1,1,班级,宿舍, , , ,2,3, , , ,6,4,2,6,6,6,6,9,1,4,2,4,4,2,2,2,2,4,4,2,1,1,5,5,3,2,3,3,3,3,3,3,4,2,2,4,4,3,4,3,3,4,2,2,2,1,3,3,4,2,3,3,3,3,4,4,3,3,3,3,3,3,3,3,3,3,2.76923076923077,2,2,3,3,3,3,3,2,3,4,3,3,3,2,36,36.6,1,36.3,1,11,7,3,-.400611924179976,-.242272944142931,Tsinhua
1994,2,2,2,2,4,3,3,2,4,2,4,4,4,4,4,2,4.61111111111111,0,4.44444444444444,3.77777777777778,70,3.11111111111111,0,2.72727272727273,1,6,3,5,6,6,6,5,5,3,2,4,5,5,6,5,6,3,2,2,3,2,5,2,4,4,5,2,2,4,3,2,5,2,2,4,3,10:09:18,3.6,2,1,3,4,5,3,4,4,5,5,5,5,3,3,7,2,3,1,1,16,3.5,4,5,5,5,5,4,2,4,3,2,5,4,4,4,2,4,4,5,3,4,4,1,5,4,3,4,2,1,1,3,4,3,4,4,2,3.07692307692308,2,2,4,1,0,4,2,5,0,4,3,5,4,1,1,1,2,1,1,2,1,2,1,2, , , , , , , , , , ,5,2,4,2,4,5,4,9,1,2,4,4,3,1,1,3,5,4,3,1,4,3,3,4,4,3,4,3,4,3,3,3,3,2,3,1,2,4,4,2,2,3,2,4,3,3,2,2,4,3,4,4,4,3,4,5,4,4,5,2,3,4,3,3,3,2,3.53846153846154,3,4,4,5,5,2,3,3,3,4,3,4,4,3,37,37.2,1,37.1,1,14,7,3,.977898208180901,-.0163523479172872,Tsinhua
1994,2,2,1,2,3,2,1,2,4,2,1,2,1,1,4,1,2.44444444444444,0,3.88888888888889,3.55555555555556,87,2.88888888888889,1,2,1,5,1,2,2,5,5,1,2,2,1,1,1,3,1,1,5,3,3,4,2,5,2,1,5,5,1,2,2,1,5,2,3,1,5,5,1,10:11:26,1.8,2,0,3,4,4,5,4,5,4,2,3,4,3,2,4,1,2,2,2, ,3,2.27272727272727,4,2,2,2,3,2,2,2,2,2,2,4,3,2,3,4,2,4,5,5,2,4,2,2,4,4,1,3,2,4,5,3,2,4,3.07692307692308,1,1,2,1,0,4,1,5,0,7,1,2,2,1,1,2,8,1,1,1,1,2,1,1,记者团,青传,NA,NA,NA,4,2,0,0,0,1,1,5,3,3,2,2,10,1,1,5,4,4,5,1,4,5,5,2,1,1,3,4,5,3,5,3,3,4,5,5,5,2,1,2,1,2,2,2,1,4,3,4,3,4,4,4,2,5,5,5,5,1,1,5,5,2,1,4,2,4,4,4,5,2,1,1.69230769230769,1,2,1,2,2,2,2,2,2,2,1,4,2,1,36.9,36.8,1,36.85,1,17,7,3,-1.58219203763216,-.31757980955148,Tsinhua
1994,2,2,3,2,2,3,2,2,4,2,2,2,4,2,2,2,2.5,.5,4,2.22222222222222,61,2.16666666666667,0,2.36363636363636,1,2,2,2,2,4,2,2,2,2,2,2,2,6,2,2,3,3,3,2,3,2,2,2,2,2,2,2,2,2,2,2,2,3,2,3,2,10:17:55,2.4,2,1,3,4,4,4,4,4,4,4,4,4,3,3,4,3,3,2,3,19,4.83333333333333,2.09090909090909,2,2,2,2,2,2,2,2,2,3,2,2,2,2,3,2,2,2,2,3,1,3,2,3,3,4,2,3,2,2,4,2,3,3,2.76923076923077,2,2,2,1,0,4,4,5,0,3,2,3,2,1,1,1,8,1,1,1,1,2,1,1,社会认知学习小组, , , , ,5, , , , ,3,2,4,6,5,5,5,9,2,2,4,5,3,3,4,4,3,5,3,2,3,4,4,4,3,4,4,4,3,4,4,3,4,3,4,1,5,5,2,2,3,4,3,2,2,3,4,4,3,3,4,4,4,2,4,4,2,2,4,2,4,3,4,4,1,4,3,3,4,3,3,3,3,3,3,3,3,2,3,3,3,36.4,37,1,36.7,1,10,7,3,-1.51654869799593,-1.29656905986261,Tsinhua
1995,4,3,2,2,2,4,2,2,4,2,2,2,2,2,2,2,3.77777777777778,0,4,3.44444444444444,71,3.77777777777778,0,2.63636363636364,1,4,2,3,3,3,5,5,5,6,5,5,3,3,5,4,2,3,2,2,6,2,3,3,2,2,5,6,6,3,6,3,2,4,6,3,4,10:23:55,2,2,0,3,4,4,4,4,4,4,4,4,4,3,4,4,3,2,2,2,19,5.16666666666667,2.18181818181818,2,2,2,2,2,2,2,2,3,3,2,4,3,4,4,2,2,4,4,4,2,4,4,4,4,3,2,4,4,3,4,4,4,4,3.69230769230769,1,2,2,1,0,4,4,5,0,8,3,4,2,1,1,2,3,3,1,3,1,2,3,2, , , , , , , , , , ,4,2,4,5,5,6,6,9,1,2,4,4,4,2,3,2,2,3,2,2,2,2,4,4,2,2,2,2,3,2,3,2,2,2,4,2,2,2,4,2,3,4,4,4,4,2,2,2,3,3,2,3,4,2,4,2,2,4,3,2,3,4,2,4,3,2,3.15384615384615,3,4,4,2,2,2,3,4,3,3,4,3,3,4,36.3,36.7,1,36.5,1,16,7,3,-.00675188636258293,.88733003698529,Tsinhua
1995,3,2,4,3,2,2,4,2,4,1,2,3,2,2,3,2,2.16666666666667,0,4.44444444444444,3.44444444444444,61,2.05555555555556,0,2.63636363636364,1,2,1,1,4,4,2,2,2,2,2,1,2,3,2,1,5,1,2,1,2,2,2,1,1,3,1,1,5,3,4,2,1,2,2,3,1,10:24:01,2.4,2,0,3,5,5,5,4,4,5,4,4,4,2,2,3,2,2,2,2,18,6.33333333333333,3.27272727272727,5,4,4,3,5,2,1,2,2,3,5,4,3,2,4,5,2,2,5,4,2,3,2,4,4,3,2,3,2,3,5,3,4,3,3.15384615384615,2,2,2,1,0,4,2,5,0,8,2,8,5,1,1,2,4,1,1,1,4,2,1,2, , , , , , , , , , ,7,3,2,6,6,5,5,9,2,3,2,4,5,3,2,1,4,4,4,1,3,2,4,3,4,3,3,4,4,3,4,4,1,1,2,1,5,3,3,4,3,4,3,2,3,3,2,2,3,3,4,4,3,3,4,4,3,3,4,2,3,3,3,3,2,3,2,2,2,2,2,2,2,2,2,2,2,2,4,2,2,36.3,36.8,1,36.55,1,10,7,3,-1.91040873581332,-1.4471827906797,Tsinhua
1995,4,4,4,3,4,2,4,2,3,3,4,4,4,2,4,2,4.83333333333333,0,4.77777777777778,4.22222222222222,65,3.72222222222222,0,3.36363636363636,1,6,6,6,7,6,6,6,6,3,3,1,4,5,1,6,6,6,3,6,1,7,4,3,6,6,3,4,2,3,3,1,5,2,3,3,5,10:27:05,3.2,2,3,3,5,5,5,5,4,4,5,5,5,3,3,4,2,2,3,4,13,4.83333333333333,3.90909090909091,4,4,5,5,4,4,4,2,4,4,3,5,4,4,4,5,3,3,5,5,2,1,1,2,3,5,1,2,1,1,3,2,3,3,2.15384615384615,2,2,2,1,0,4,1,5,0,1,0,4,3,1,1,2,2,3,1,2,3,2,1,1,贴吧, , , , , , , , , ,4,2,4,4,5,6,5,8,0,2,4,4,4,2,2,4,2,4,2,2,1,1,4,4,4,2,3,5,5,3,4,5,1,1,1,1,1,5,3,2,2,3,4,4,4,5,1,2,4,4,3,4,3,2,5,4,4,2,3,3,3,5,4,4,2,3,2.69230769230769,3,3,3,3,2,1,2,4,2,3,3,4,3,3,37.1,37.3,1,37.2,1,16,7,3,1.24047156672583,.812023171576742,Tsinhua
1996,1,1,1,2,2,1,2,2,3,1,2,1,2,2,2,2,2.94444444444444,0,4,3,72,2.5,0,1.63636363636364,1,5,2,2,2,5,2,2,4,2,2,2,2,4,4,4,2,5,2,6,2,2,1,2,2,2,3,2,3,3,4,2,2,2,3,2,2,10:28:37,1.8,2,0,3,4,4,4,4,4,4,4,4,4,3,3,3,2,2,2,2,21,5.33333333333333,2.36363636363636,4,2,4,2,2,2,2,2,2,2,2,3,2,2,4,3,3,4,4,2,2,4,4,4,4,4,2,3,2,4,4,4,4,4,3.61538461538462,1,2,2,1,0,4,4,5,0,8,5,4,3,1,1,1,8,1,1,1,4,2,1,1,社团联合会,班级,青年传媒中心,NA,NA, , , , , ,7,2,2,5,5,5,5,9,2,2,2,4,4,3,3,3,3,4,2,5,4,4,2,2,4,4,4,4,4,4,4,4,2,2,2,2,3,4,3,3,2,3,4,4,5,4,4,2,4,3,4,3,2,2,3,4,4,3,4,4,4,3,4,4,3,1,1.69230769230769,1,2,2,2,2,2,2,1,2,2,1,4,2,1,36.6,36.4,1,36.5,1,14,7,3,-.991401980906067,-.844727867411316,Tsinhua
1994,2,4,2,3,5,1,4,5,2,5,2,2,4,2,2,2,4.5,0,4.88888888888889,2.88888888888889,66,3,0,3.18181818181818,1,5,3,4,5,6,3,7,5,5,6,4,4,4,5,4,2,5,4,4,1,4,2,1,2,6,2,5,5,2,2,4,4,2,3,1,4,10:29:13,2.4,2,0,3,5,5,5,4,5,5,5,5,5,4,3,4,1,4,1,4,13,5,3,4,4,4,4,1,2,2,2,4,2,4,4,3,2,2,3,2,2,4,4,2,4,1,1,3,4,1,3,1,1,2,4,2,1,2.15384615384615,1,2,2,1,0,4,3,5,0,8,1,4,3,1,1,2,8,3,1,1,1,2,1,2, , , , , , , , , , ,2,3,4,5,6,6,4,9,2,3,4,5,5,1,1,1,1,4,4,2,2,2,4,4,4,3,3,4,4,3,4,4,2,2,2,2,3,3,3,3,3,4,3,3,3,4,3,4,5,4,4,4,3,3,4,3,3,4,3,3,3,3,3,4,3,3,3,3,4,3,3,4,1,3,4,3,3,4,4,3,1,36.8,36.6,1,36.7,1,13,7,3,.846611528908437,-.166966078734383,Tsinhua
1990,2,2,4,3,2,4,3,3,3,2,4,2,3,2,3,2,2.94444444444444,0,4.55555555555556,3.33333333333333,51,2.61111111111111,0,2.90909090909091,1,3,2,2,5,6,2,2,2,6,2,2,2,6,2,2,2,3,2,5,2,4,2,2,2,2,2,2,2,2,3,2,2,4,4,2,3,10:29:53,2.4,2,0,3,5,4,4,5,5,5,5,4,4,4,4,5,4,4,5,5,21,4.5,3.18181818181818,5,4,4,4,4,2,2,2,2,3,3,4,4,2,4,3,4,2,4,3,1,4,4,5,4,4,3,4,4,4,4,4,3,3,3.84615384615385,2,2,2,1,0,4,4,5,0,3,1,8,4,1,1,2,5,1,1,7,1,2,1,2,NA,NA,NA,NA,NA, , , , , ,5,2,4,5,3,4,4,9,2,2,4,4,4,4,1,2,5,5,2,1,2,2,3,3,4,2,4,5,4,4,4,4,1,1,2,1,4,5,2,1,2,4,4,5,5,2,4,1,4,2,4,4,2,1,4,2,4,5,3,2,2,3,3,4,2,5,2.23076923076923,2,2,3,2,2,2,3,2,2,3,2,4,2,2,36.3,37.1,1,36.7,1,7,7,3,-.991401980906067,-.69411413659422,Tsinhua
1993,2,2,3,3,2,3,4,2,4,2,2,2,3,1,4,2,4.44444444444444,0,4.88888888888889,2.66666666666667,61,2.88888888888889,0,2.63636363636364,1,4,4,4,6,6,5,4,6,4,5,3,4,4,4,4,4,6,3,2,2,2,4,3,3,4,3,3,3,3,3,2,5,2,3,2,3,10:30:11,2.4,2,0,3,5,5,5,4,5,5,5,5,5,3,2,4,2,2,2,3,27,6,2.63636363636364,4,3,3,4,3,2,2,2,2,2,2,2,4,1,5,1,1,3,3,4,2,3,4,4,5,5,1,3,5,4,4,4,3,3,3.69230769230769,2,2,2,1,0,4,4,5,0,5,3,7,4,2,3,2,5,2,1,5,3,2,1,2,志愿者协会,NA,NA,NA,NA,2, , , , ,5,2,4,7,6,5,5,9,2,2,4,5,5,3,3,3,4,4,4,2,2,2,4,4,4,3,3,5,5,3,4,4,1,1,1,1,3,4,3,2,3,4,2,4,4,3,2,2,4,2,4,4,3,3,5,3,2,2,2,2,3,4,3,3,4,3,2.69230769230769,3,3,4,2,2,2,2,3,3,5,2,4,2,2,36,36.6,1,36.3,1,10,7,3,.780968189272205,-.31757980955148,Tsinhua
1993,4,3,3,3,4,3,4,3,2,2,2,1,2,2,5,3,3.5,0,3.22222222222222,3.33333333333333,21,2.55555555555556,0,3,1,2,3,3,4,2,5,2,5,3,6,5,3,2,2,3,6,5,2,3,2,2,2,4,4,2,2,2,2,2,6,2,2,2,2,1,4,10:36:29,2.6,2,1,3,4,3,5,3,3,4,2,2,3,3,2,5,2,2,3,2,17,4.33333333333333,2.90909090909091,4,4,3,4,2,3,2,2,3,3,2,3,4,2,4,4,3,2,4,4,2,4,3,4,4,4,3,4,1,4,5,2,4,3,3.46153846153846,1,2,2,1,0,4,2,5,0,3,2,4,4,1,1,2,5,1,1,1,1,2,1,1,羽毛球俱乐部,NA,NA,NA,NA,3, , , , ,3,2,2,6,5,2,2,9,2,2,2,5,3,2,2,4,3,5,3,2,2,2,4,4,3,4,2,5,3,3,5,3,2,3,2,1,4,3,3,2,3,4,4,3,4,4,3,2,4,3,4,3,2,2,4,3,4,4,4,2,2,4,3,4,3,3,3.38461538461538,5,5,4,2,3,3,4,4,3,4,4,4,2,1,36.3,36.6,1,36.45,1,11,7,3,-.334968584543744,-.769421002002768,Tsinhua
1988,4,4,3,2,4,3,4,3,4,3,2,1,4,2,4,2,4.77777777777778,0,4.77777777777778,3.88888888888889,22,3.44444444444444,0,3.27272727272727,1,6,3,5,6,5,6,5,5,3,2,5,6,5,5,5,6,6,2,5,3,6,2,3,6,5,3,3,3,3,2,2,6,2,3,3,2,10:37:20,2.6,2,0,3,5,4,5,5,5,4,5,5,5,4,2,6,4,2,4,5, ,5.33333333333333,3.81818181818182,4,4,4,4,4,4,3,3,4,4,4,3,4,3,4,4,4,5,4,4,2,4,4,3,3,4,2,4,4,4,4,3,3,4,3.53846153846154,1,2,2,1,0,4,2,5,0,8,1,8,4,1,1,2,3,1,1,3,1,1,4,2,NA,NA,NA,NA,NA,0,0,0,0,0,3,2,3,6,6,6,5,9,0,2,3,3,4,4,2,3,4,3,4,2,2,3,4,4,4,2,4,4,3,3,4,4,4,3,4,2,3,4,2,2,4,4,3,4,4,4,3,2,4,4,3,4,4,4,4,3,3,4,4,4,4,4,5,5,4,3,2.38461538461538,2,3,3,2,2,2,2,3,2,2,2,4,3,3,36.5,36.6,1,36.55,1,8,7,3,1.1748282270896,.435488844534002,Tsinhua
1996,2,3,1,4,2,3,4,3,3,3,2,2,4,1,2,2,3.61111111111111,0,4.55555555555556,2.88888888888889,74,3.72222222222222,0,2.72727272727273,1,6,3,2,2,7,2,2,6,4,1,4,2,1,3,5,4,6,5,7,3,4,2,5,5,3,2,2,4,3,6,2,2,5,5,1,6,10:37:45,2.2,2,1,3,5,5,4,3,5,5,5,4,5,1,6,4,2,2,2,2, ,2.5,2.36363636363636,4,3,4,2,3,1,1,1,1,2,4,3,3,2,4,2,3,3,2,4,1,3,4,4,2,4,2,4,4,3,5,4,4,3,3.53846153846154,2,2,2,1,0,4,4,4,1,8,3,8,4,1,1,2,8,3,1,8,4,2,1,2,NA,NA,NA,NA,NA,0,0,0,0,0,3,3,4,3,2,2,4,10,2,3,4,4,4,2,4,3,2,5,3,1,3,2,3,4,4,2,2,4,4,3,4,4,2,2,2,1,3,4,4,3,4,3,3,4,4,3,4,2,4,3,4,4,2,2,4,3,2,2,2,3,2,4,2,3,2,2,3.07692307692308,3,4,3,3,4,2,3,2,4,5,2,3,2,3,36.7,36.9,1,36.8,1,16,7,3,-.20368190527128,.812023171576742,Tsinhua
1994,2,2,1,1,1,1,1,1,1,2,1,4,3,1,4,2,4.22222222222222,0,4.55555555555556,4.33333333333333,65,2.94444444444444,0,1.27272727272727,1,7,3,4,6,7,3,6,3,4,2,2,5,4,5,1,6,3,5,2,2,2,4,1,2,5,2,4,1,4,4,2,4,2,1,5,6,10:38:00,2.8,2,4,3,4,4,4,4,5,5,5,5,5,1,3,4,6,5,1,1,17,3.5,3.81818181818182,5,5,5,5,4,2,3,2,4,3,4,5,5,5,5,3,3,4,4,5,1,2,1,3,4,3,1,1,2,1,1,1,1,2,1.76923076923077,2,2,2,1,0,4,4,5,0,3,3,4,1,1,1,2,8,1,1,4,1,2,1,2, , , , , , , , , , ,4,2,4,3,3,4,4,9,2,2,4,5,4,3,3,4,4,5,2,1,1,1,1,3,5,3,2,5,5,3,5,4,2,2,3,2,4,5,5,2,2,2,2,3,2,4,1,2,3,2,4,4,1,1,4,4,2,2,5,1,3,4,2,3,3,2,2.69230769230769,1,3,2,3,4,3,2,2,3,4,2,4,4,2,36.7,36.5,1,36.6,1,16,7,3,.518394830727276,-.242272944142931,Tsinhua
1989,2,4,2,2,3,2,4,2,3,2,2,2,1,2,3,1,3.66666666666667,0,3.44444444444444,4,51,4.11111111111111,0,2.54545454545455,1,5,2,3,3,4,5,5,5,3,2,3,2,5,2,5,4,6,2,2,3,5,3,5,3,5,4,5,4,4,6,3,6,3,5,5,3,10:39:07,1.8,2,6,3,3,3,4,4,2,4,4,4,3,5,7,6,6,6,6,3,31,5.66666666666667,3.27272727272727,3,4,2,4,2,4,4,4,3,3,3,4,4,4,4,4,4,4,4,4,1,2,2,5,3,5,2,4,3,4,3,2,5,3,3.30769230769231,2,2,2,1,0,4,4,5,0,7,3,5,5,2,6,2,8,2,3,3,2,2,1,1,影迷团体, , , , ,3, , , , ,4,2,4,6,6,6,6,9,4,2,4,4,4,2,3,2,3,4,3,2,2,2,5,5,3,4,3,4,3,3,3,2,3,4,3,2,4,4,3,2,4,4,4,4,4,4,3,1,4,4,4,4,3,2,4,4,4,4,5,4,4,4,4,4,2,4,3,3,3,3,3,3,3,3,3,3,4,3,3,3,2,36.4,36.7,1,36.55,1,7,7,3,-.138038565635048,1.33917122943658,Tsinhua
1995,3,3,3,3,3,4,3,3,3,3,3,3,3,2,3,3,3.88888888888889,0,3.55555555555556,3.44444444444444,74,1.88888888888889,0,3.09090909090909,1,6,5,2,6,6,6,6,2,1,4,3,2,4,4,2,4,5,2,3,2,2,2,1,1,2,1,2,2,2,2,2,1,1,2,2,4,10:39:20,2.8,2,8,3,4,4,4,4,4,3,3,2,4,5,7,1,6,1,5,6,18,4.83333333333333,2.36363636363636,3,4,2,2,2,2,2,2,2,3,2,3,4,3,3,4,3,2,4,5,1,4,3,4,3,4,1,3,2,3,4,3,2,4,3.07692307692308,1,2,2,1,0,4,2,5,0,1,0,5,2,1,1,2,8,2,2,8,1,2,1,2,班级,NA,NA,NA,NA, , , , , ,7,2,2,3,6,6,5,8,1,2,2,4,4,2,1,2,2,5,4,4,2,2,4,4,4,1,1,5,4,4,3,3,4,3,2,2,2,4,2,2,2,4,2,2,3,4,2,2,4,2,4,4,1,3,4,1,1,1,3,4,4,4,3,4,3,1,2.53846153846154,2,4,4,3,2,1,3,2,3,3,2,4,2,2,36.1,36.1,1,36.1,1,16,7,3,.124534792909882,-1.67310338690535,Tsinhua
1989,2,2,4,2,2,4,2,2,2,2,2,2,2,2,3,2,3.16666666666667,0,4,3.33333333333333,22,2.83333333333333,0,2.36363636363636,1,5,2,2,6,6,2,2,3,2,2,6,3,2,3,2,3,3,3,5,2,2,2,6,2,2,2,2,3,2,5,2,2,3,5,2,2,10:40:25,2.2,2,0,3,4,4,4,4,4,4,4,4,4,4,2,6,2,2,1,2,22,6,3.54545454545455,4,4,4,4,4,4,3,4,2,2,4,4,2,2,4,4,4,2,4,4,1,5,5,4,4,4,3,4,2,5,4,4,2,4,3.84615384615385,1,2,1,1,0,4,1,5,0,3,1,3,8,1,1,2,8,1,1,7,1,2,1,2, , , , , , , , , , ,6,2,2,6,6,6,6,9,2,2,2,4,4,2,2,2,2,4,4,2,2,2,4,4,2,2,2,4,4,2,4,4,2,2,2,2,4,4,2,2,2,2,4,4,4,4,2,2,4,4,4,4,2,2,4,2,2,2,4,2,4,2,4,4,2,2,3.15384615384615,4,4,4,3,2,2,3,3,3,3,4,4,2,4,36.2,36.4,1,36.3,1,8,7,3,-.728828622361138,-.392886674960027,Tsinhua
1991,2,2,2,2,2,2,4,2,4,2,2,2,3,2,4,2,3.61111111111111,0,4.11111111111111,3.88888888888889,51,2.5,0,2.36363636363636,1,5,4,3,4,6,5,3,4,2,3,3,3,3,5,3,3,3,3,3,2,3,2,3,3,3,2,2,2,2,2,2,3,2,4,2,3,10:42:58,2.6,2,1,3,5,4,4,4,4,4,4,4,4,5,6,6,4,6,3,2,27,5.66666666666667,3.45454545454545,4,3,4,3,4,3,3,3,3,4,4,4,4,3,4,4,4,4,4,4,1,4,3,4,3,4,2,4,2,3,4,2,4,3,3.23076923076923,1,2,2,1,0,4,2,5,0,2,2,5,4,1,1,2,2,2,2,1,1,1,1,2,实验室成员,同学,创业团队,NA,NA,7,2,3, , ,6,2,4,6,5,5,5,9,1,2,4,4,4,3,4,4,3,4,2,2,2,2,4,5,4,3,3,4,4,4,4,4,4,2,2,2,4,4,2,2,2,2,2,2,4,4,3,2,4,3,4,4,3,2,4,4,4,3,4,2,4,4,4,4,2,4,2.61538461538462,3,3,3,2,2,2,3,2,3,4,3,4,2,2,36.8,36.9,1,36.85,1,7,7,3,-.20368190527128,-.844727867411316,Tsinhua
1994,3,3,3,3,2,2,3,3,3,2,2,2,2,3,3,2,4.44444444444444,0,3.55555555555556,3.33333333333333,71,3.61111111111111,0,2.63636363636364,1,6,4,4,6,6,2,6,6,4,4,2,4,4,2,6,4,6,4,6,4,4,2,2,2,4,4,4,4,2,3,2,4,4,6,4,4,10:43:00,2.4,2,0,3,3,3,4,3,3,4,4,4,4,3,2,4,1,2,2,2,11,5,3.09090909090909,5,4,3,4,3,2,3,2,2,2,4,4,3,2,4,2,4,3,4,4,2,4,4,4,4,2,1,2,4,3,5,3,4,2,3.23076923076923,2,2,2,1,0,4,1,5,0,3,2,2,2,1,1,2,2,1,1,1,1,2,1,2,o, , , , , , , , , ,3,2,4,5,6,6,4,9,0,2,4,4,4,2,2,3,3,4,2,1,2,3,4,4,4,3,3,3,3,2,4,2,3,3,3,2,1,4,4,2,4,4,3,3,4,4,2,2,4,3,4,4,2,3,4,2,2,2,2,4,3,3,3,3,3,3,2.76923076923077,3,3,4,3,2,2,3,4,2,2,3,4,2,3,36.5,36.7,1,36.6,1,16,7,3,.780968189272205,.661409440759646,Tsinhua
1995,3,4,3,3,3,4,4,3,4,3,3,2,4,3,3,2,3.77777777777778,0,3.88888888888889,3.11111111111111,87,4.05555555555556,0,3.36363636363636,1,4,4,3,3,5,4,5,4,3,3,4,3,4,5,4,3,4,3,4,3,4,2,4,5,4,4,4,5,3,3,3,5,5,5,5,5,10:49:15,2.8,2,7,3,4,4,4,4,4,4,3,4,4,2,2,7,2,3,3,3,39,6,3.54545454545455,4,4,4,4,4,4,2,3,3,3,4,3,3,3,3,3,2,4,4,3,2,4,4,2,2,4,2,4,2,2,3,3,4,2,2.92307692307692,1,2,2,1,0,4,1,4,3,5,3,3,3,2,3,2,3,3,3,5,4,1,4,1,教院志协,数学建模, , , ,5,4, , , ,7,2,4,5,6,6,3,10,1,2,4,4,4,3,3,2,3,4,4,2,2,2,4,4,4,3,3,4,4,3,4,4,4,3,3,2,3,4,4,3,2,4,3,4,4,4,4,2,4,4,4,4,2,2,4,4,3,4,4,4,4,4,4,4,4,2,2.61538461538462,3,4,2,2,2,2,3,3,2,4,3,4,2,2,36.7,36.6,1,36.65,1,17,7,3,-.00675188636258293,1.26386436402803,Tsinhua
1994,1,2,2,2,2,2,2,2,2,3,2,2,2,2,3,3,2.61111111111111,0,4,2.33333333333333,60,3.38888888888889,0,2,1,2,2,2,3,4,2,2,4,2,3,2,3,6,2,2,2,2,2,4,2,5,2,2,3,4,2,5,3,2,3,2,5,6,6,3,2,10:51:15,2.4,2,0,3,4,4,4,4,4,5,3,4,4,3,4,4,2,3,2,2,15,4.5,2.27272727272727,4,2,4,3,3,2,1,1,1,2,2,2,4,2,3,1,1,1,4,3,2,5,5,3,4,4,2,4,4,5,3,4,4,4,3.92307692307692,2,2,2,1,0,4,4,5,0,4,1,3,3,1,1,2,2,1,1,1,2,2,1,2,N,N,N,N,N, , , , , ,3,2,5,6,5,2,4,9,1,2,5,4,4,2,2,3,3,4,2,2,2,1,3,4,4,3,4,4,4,3,4,4,2,2,2,1,2,2,2,2,3,4,3,2,3,4,3,2,2,4,4,3,2,4,3,4,2,2,4,3,2,3,4,3,3,2,2.30769230769231,2,2,2,3,2,3,3,2,3,4,1,3,2,1,36.8,36.7,1,36.75,1,13,7,3,-1.38526201872346,.360181979125453,Tsinhua
1995,3,3,2,3,3,4,4,4,3,3,3,2,3,2,3,2,3.27777777777778,0,4.88888888888889,3.55555555555556,21,3.33333333333333,0,3.18181818181818,1,4,2,2,5,4,5,3,5,3,3,3,3,3,2,3,2,5,2,5,3,2,3,4,5,4,2,4,3,3,5,3,3,2,2,3,4,10:55:45,2.4,2,1,3,5,5,5,4,5,5,5,5,5,4,5,5,2,5,2,4, ,3.5,3,4,4,4,4,3,2,2,2,2,2,4,3,4,2,4,4,4,3,4,4,2,3,2,3,3,4,2,3,2,4,3,3,3,3,2.92307692307692,2,2,2,1,0,4,4,5,0,8,2,8,3,1,1,2,8,1,1,1,1,2,1,2,NA,NA,NA,NA,NA,0,0,0,0,0,4,4,3,3,4,3,4,9,2,4,3,4,4,3,2,2,2,4,2,1,2,3,4,4,3,4,3,4,4,3,3,3,3,2,2,1,2,4,4,2,4,4,2,2,3,2,2,2,4,3,4,3,3,1,4,3,4,3,3,3,4,3,3,3,2,4,2.38461538461538,2,2,2,2,3,2,3,3,3,3,2,4,2,2,37.1,36.8,1,36.95,1,11,7,3,-.597541943088674,.284875113716905,Tsinhua
1994,3,4,2,4,2,3,3,4,3,2,3,4,4,2,4,2,5.27777777777778,0,4.66666666666667,3.33333333333333,74,2.27777777777778,0,3,1,6,7,5,6,6,6,6,6,4,5,4,2,4,5,6,6,7,4,6,1,2,3,2,1,2,2,2,1,3,1,2,3,2,3,1,4,10:57:30,3.2,2,2,3,5,5,4,5,5,5,5,4,4,4,2,4,2,2,2,2,17,6.16666666666667,2.18181818181818,3,2,2,3,2,2,2,2,2,2,2,3,4,1,4,4,4,3,4,3,2,2,2,2,4,3,1,2,1,2,2,2,1,2,2,1,2,2,1,0,4,4,5,0,8,1,8,5,1,1,2,5,1,1,1,2,2,1,2, , , , , , , , , , ,5,3,4,7,6,6,5,9,3,3,4,4,4,3,4,3,4,4,2,1,2,2,2,4,2,3,2,3,4,3,4,4,4,2,2,2,2,3,4,2,2,3,2,2,3,3,2,3,4,4,2,3,2,2,4,2,4,3,2,2,2,4,2,2,2,4,3.53846153846154,4,4,4,4,3,4,3,3,3,4,3,3,3,4,36.7,36.9,1,36.8,1,16,7,3,1.76561828381569,-1.14595532904551,Tsinhua
1995,2,2,2,2,2,1,2,2,2,2,2,2,4,2,2,4,2.33333333333333,0,4.11111111111111,2.88888888888889,65,2.83333333333333,0,1.90909090909091,1,3,2,2,2,3,3,1,2,2,2,2,3,5,1,2,2,3,2,3,2,3,3,3,3,3,2,3,3,2,6,2,2,3,3,3,2,10:57:54,2.8,2,0,3,4,4,4,4,4,5,4,4,4,4,4,4,1,2,1,3,31,2.83333333333333,3.45454545454545,4,4,4,4,2,4,4,2,2,4,4,2,4,2,4,3,2,1,4,4,2,2,2,4,4,4,2,3,2,2,4,2,3,2,2.76923076923077,2,2,2,1,0,4,1,5,0,4,1,7,5,1,1,2,8,1,1,8,5,2,1,1,梦笔生话,NA,NA,NA,NA,7, , , , ,2,2,2,3,2,2,3,9,3,2,2,4,4,4,4,4,4,4,2,1,2,2,2,4,4,2,2,4,3,4,4,4,2,2,2,3,2,4,4,2,4,4,2,2,4,4,2,2,4,4,4,4,2,2,4,4,2,2,4,2,3,4,4,4,2,2,3.07692307692308,3,4,2,2,2,3,3,3,4,2,4,4,4,4,36.9,36.9,1,36.9,1,16,7,3,-1.71347871690462,-.392886674960027,Tsinhua
1968,1,2,4,1,2,1,1,1,2,1,1,2,5,2,5,1,1.77777777777778,0,4.66666666666667,1.44444444444444,68,1.11111111111111,0,1.54545454545455,1,2,1,1,2,7,1,1,3,1,1,1,1,1,4,1,2,1,1,3,1,1,1,1,1,1,1,1,1,1,1,1,1,1,1,1,1,10:58:56,3,2,0,3,4,5,5,5,5,5,3,5,5,4,4,4,2,2,2,2,48,2,1.36363636363636,2,1,2,2,2,1,1,1,1,1,1,2,1,1,1,1,1,2,1,3,2,4,3,4,4,3,2,3,4,3,4,3,2,1,3.07692307692308,2,2,1,2,2,2,2,2,2,8,6,5,5,1,1,2,3,3,4,8,3,1,3,1,中共党组织,邛海湿地科普,瑜伽馆,NA,NA,5,3,3, , ,1,2,4,2,2,2,2,11,2,2,4,5,5,2,4,4,4,4,2,1,2,3,4,4,5,2,4,5,5,5,5,5,4,1,3,2,1,5,5,1,1,5,2,2,2,4,4,2,3,4,4,4,2,1,4,4,4,4,4,4,4,4,4,4,4,2,2.07692307692308,2,2,2,3,2,2,2,1,2,3,2,4,2,2,36.3,36.6,1,36.45,1,13,7,3,-2.36991211326695,-2.72739950262502,Tsinhua
1995,4,4,2,2,4,4,4,4,4,2,5,2,2,2,2,2,4.83333333333333,0,4.11111111111111,3.33333333333333,78,2.77777777777778,0,3.54545454545455,1,4,6,6,3,5,4,6,5,4,5,4,4,4,5,6,6,6,4,4,5,3,2,3,3,3,2,2,2,2,4,2,3,2,2,2,4,10:59:01,2,2,3,3,4,4,4,4,4,4,4,4,5,1,2,4,4,2,5,3,16,4.16666666666667,3.36363636363636,4,4,4,4,4,3,2,2,2,4,4,2,4,2,4,4,4,2,4,4,1,2,5,2,3,2,1,5,4,3,3,3,4,3,3.07692307692308,2,2,2,1,0,4,2,5,0,6,3,5,4,1,1,2,8,3,1,2,1,2,1,2, , , , , , , , , , ,3,4,4,5,3,5,5,9,2,4,4,4,5,2,1,3,1,5,4,2,3,3,2,4,4,4,4,4,3,3,4,3,2,3,2,1,5,3,3,2,2,4,2,3,2,4,2,3,4,2,4,4,4,3,4,2,4,3,2,4,2,4,3,4,4,3,3.38461538461538,4,4,4,4,3,2,2,3,4,2,4,3,4,4,36.8,36.9,1,36.85,1,17,7,3,1.24047156672583,-.468193540368576,Tsinhua
1991,1,2,1,2,1,1,1,2,2,2,1,2,4,2,4,2,3.11111111111111,0,3.88888888888889,2.55555555555556,60,2.05555555555556,0,1.45454545454545,1,6,2,2,6,6,2,2,2,4,2,2,2,2,4,2,6,2,2,2,2,2,2,2,1,1,2,2,2,2,6,2,1,2,2,2,2,10:59:34,2.8,2,0,3,5,4,4,4,4,4,2,4,4,3,6,7,1,3,1,4,18,3.16666666666667,2.54545454545455,4,2,4,2,4,2,2,2,2,2,2,2,2,2,4,1,1,3,4,4,2,4,4,4,5,4,1,4,2,4,5,4,3,4,3.69230769230769,2,2,2,1,0,2,2,5,0,8,4,7,4,1,1,2,5,1,1,1,3,2,1,2, , , , , , , , , , ,2,1,4,4,3,2,2,9,2,1,4,4,4,3,2,2,3,5,1,1,2,3,4,5,4,2,2,4,3,3,4,4,1,1,2,1,4,3,3,2,1,4,2,4,4,4,3,2,4,4,4,3,2,3,4,3,2,2,2,4,4,3,4,3,4,4,2.07692307692308,2,3,2,2,2,2,2,1,3,4,1,4,2,1,36.8,37,1,36.9,1,13,7,3,-.794471961997371,-1.4471827906797,Tsinhua
1996,2,2,2,2,3,2,3,3,4,2,2,2,4,2,2,2,3.83333333333333,0,4.11111111111111,3.22222222222222,100,2.66666666666667,0,2.45454545454545,1,5,4,6,6,5,4,4,2,4,3,2,4,4,4,2,3,4,3,3,2,2,2,2,4,3,2,2,2,4,5,2,2,2,2,2,5,11:02:33,2.4,2,12,3,5,4,4,4,4,4,4,4,4,4,4,4,2,2,4,5,33,3.66666666666667,3.45454545454545,4,4,4,4,2,4,4,2,4,2,4,4,3,2,4,2,2,4,4,4,1,3,3,5,4,4,3,4,2,2,4,2,2,2,3.07692307692308,2,2,2,1,0,4,4,5,0,3,3,3,3,1,1,2,8,1,1,3,1,2,1,1,专业班级,学院老师,学生会,寝室, ,7,3,2,3, ,2,1,5,4,5,3,3,9,2,1,5,4,4,4,3,2,4,4,3,2,2,2,2,4,4,4,3,4,4,3,4,4,4,2,3,1,2,2,4,2,4,4,3,4,4,4,3,2,4,3,4,4,3,2,4,2,4,4,4,2,4,5,4,4,2,3,2.61538461538462,3,3,4,2,2,2,3,3,2,2,3,4,2,3,37.1,37,1,37.05,1,14,7,3,.0588914532736497,-.618807271185672,Tsinhua
1994,2,2,2,1,3,2,4,2,2,2,2,2,2,1,4,1,3.22222222222222,0,4.88888888888889,2.88888888888889,65,2.27777777777778,0,2.18181818181818,1,6,2,2,2,6,2,5,5,3,1,1,2,6,2,1,4,6,2,2,2,5,2,2,2,2,2,1,2,2,3,2,2,1,5,2,2,11:02:33,2,2,0,3,5,5,5,5,5,5,4,5,5,3,3,3,2,2,2,3,22,4.5,3,4,4,4,4,2,2,4,2,2,1,4,2,2,2,4,3,3,2,4,4,2,2,3,4,3,4,1,4,2,3,5,2,4,4,3.15384615384615,2,2,2,1,0,4,4,5,0,8,2,8,2,1,1,2,1,3,8,2,1,2,1,2, , , , , , , , , , ,4,2,3,5,5,5,5,9,1,2,3,4,4,1,1,1,1,4,1,1,2,2,4,4,4,2,2,4,5,3,4,5,3,1,3,1,4,4,2,2,1,4,3,4,4,4,4,2,4,3,4,3,2,5,4,4,2,3,4,4,5,4,4,3,2,4,2.07692307692308,3,2,2,2,2,1,1,3,2,2,3,4,2,2,36.9,37,1,36.95,1,16,7,3,-.663185282724906,-1.14595532904551,Tsinhua
1996,3,4,3,4,4,3,4,3,4,4,4,2,4,1,2,1,3.61111111111111,5,5,3.22222222222222,78,4.55555555555556,0,3.63636363636364,1,4,5,5,6,5,2,1,5,3,1,4,5,5,2,5,2,3,2,6,3,6,7,1,7,5,3,4,5,4,7,2,3,5,4,4,6,11:05:28,2,2,10,3,5,5,5,5,5,5,5,5,5,3,3,5,4,4,4,4, ,5.16666666666667,3,3,3,3,3,3,3,3,3,3,3,3,2,3,3,4,2,3,4,4,4,2,3,3,4,3,4,2,3,2,3,3,2,2,4,2.92307692307692,2,2,2,1,0,4,4,5,0,8,3,5,3,1,1,2,5,1,1,1,1,2,1,2,NA,NA,NA,NA,NA,0,0,0,0,0,5,2,4,5,5,5,5,9,2,2,4,4,4,1,1,1,2,5,4,2,2,1,2,5,5,1,2,5,5,2,4,4,2,2,2,1,2,4,2,2,4,4,3,4,3,5,2,2,4,4,4,4,2,4,4,3,3,2,4,2,3,4,4,4,4,3,2.53846153846154,2,2,2,4,3,2,3,2,2,4,3,2,2,2,36.2,36.3,1,36.25,1,17,7,3,-.20368190527128,1.94162615270496,Tsinhua
1996,4,4,5,4,4,5,5,5,2,4,5,1,4,1,3,2,4.16666666666667,0,3.11111111111111,4.22222222222222,74,4,0,4.27272727272727,1,4,4,4,4,4,5,4,4,4,4,2,4,4,6,5,4,5,4,4,4,4,4,4,4,4,4,4,4,4,4,4,4,4,4,4,4,11:06:12,2.2,2,14,3,3,3,3,2,4,3,4,3,3,3,3,2,2,2,1,1,13,6.66666666666667,4.18181818181818,4,5,5,5,4,4,3,5,3,4,4,4,5,2,5,5,4,4,4,5,2,3,2,2,2,4,2,2,2,1,2,2,2,1,2.07692307692308,1,2,2,1,0,2,1,5,0,1,0,5,3,1,1,2,8,1,1,1,3,2,1,1,学生会, , , , ,1, , , , ,6,2,2,7,6,7,7,8,1,2,2,4,4,2,2,2,3,5,3,2,1,1,4,5,1,1,1,2,2,2,2,2,4,4,5,2,4,5,3,4,4,2,4,3,5,4,4,2,4,3,5,4,1,1,3,3,1,5,4,3,3,2,3,3,1,3,3.15384615384615,4,4,3,2,3,2,4,3,3,4,2,3,4,3,36.65,36.5,1,36.575,1,16,7,3,.452751491091044,1.18855749861948,Tsinhua
1993,2,3,2,3,2,4,2,2,3,2,2,2,2,1,1,1,2.66666666666667,0,4,3.55555555555556,72,2.55555555555556,0,2.45454545454545,1,4,2,2,2,4,5,2,2,2,2,2,2,2,2,5,2,5,1,3,2,2,2,2,6,2,2,2,1,1,5,2,5,3,2,2,2,11:06:18,1.4,2,4,3,4,4,4,4,4,4,4,4,4,5,4,5,2,3,2,3,15,4.33333333333333,3,3,3,4,3,2,2,3,3,2,4,4,4,3,3,4,4,3,3,4,4,1,3,2,4,3,3,2,2,3,3,3,2,2,3,2.69230769230769,2,2,2,1,0,4,4,5,0,8,1,8,4,1,1,2,4,1,1,1,1,2,1,2, , , , , , , , , , ,2,2,4,5,4,4,4,9,1,2,4,4,4,2,2,2,2,5,2,2,2,2,4,4,3,4,3,3,3,3,4,3,2,2,4,1,3,4,4,2,2,3,2,3,3,2,4,2,3,4,4,4,3,3,4,3,4,4,3,2,3,4,3,4,2,3,2.76923076923077,3,4,3,2,3,3,3,2,3,3,3,4,2,2,36.45,36.75,1,36.6,1,5,7,3,-1.31961867908723,-.769421002002768,Tsinhua
1996,2,4,2,4,4,2,4,4,4,3,2,2,2,2,2,1,4.88888888888889,0,4.22222222222222,3,90,2.94444444444444,0,3.18181818181818,1,6,6,3,6,6,5,5,6,3,6,3,4,6,5,6,5,5,2,5,2,5,3,2,3,5,2,3,1,2,2,2,6,3,3,2,2,11:07:00,1.8,2,4,3,4,4,3,5,5,4,5,4,4,4,4,4,2,5,3,2,16,3.5,2.45454545454545,4,4,3,3,2,1,1,2,1,4,2,4,2,1,4,1,3,3,5,4,2,4,2,3,4,4,1,3,3,2,4,3,3,3,3,2,2,2,1,0,4,4,5,0,8,1,3,1,1,1,2,3,2,1,1,4,2,1,2,院志愿者协会,读者俱乐部,NA,NA,NA, ,1, , , ,2,2,5,4,3,4,2,9,1,2,5,4,4,2,1,2,3,5,3,1,2,2,4,4,4,3,3,4,5,2,4,4,2,3,2,2,2,4,4,1,4,5,2,1,1,3,3,2,4,3,4,5,3,4,5,2,3,2,3,2,1,5,4,4,2,3,2.61538461538462,2,3,3,2,3,2,2,3,2,4,3,5,3,2,37,36.8,1,36.9,1,13,7,3,1.30611490636206,-.242272944142931,Tsinhua
1995,2,2,2,2,1,4,2,2,1,4,2,2,1,1,2,2,5.27777777777778,0,3.11111111111111,2.77777777777778,74,1.94444444444444,0,2.18181818181818,1,7,7,6,6,7,1,6,4,6,7,2,5,7,6,7,3,6,2,6,3,1,2,2,1,1,1,1,3,3,1,2,1,2,1,1,3,11:07:34,1.6,2,0,3,5,4,4,5,5,1,2,1,1,2,2,4,1,2,3,4,20,5.66666666666667,2.81818181818182,4,2,5,4,1,3,4,2,2,2,2,4,1,2,4,4,2,2,2,4,2,5,3,4,4,2,1,3,2,2,5,2,4,4,3.15384615384615,1,2,2,1,0,4,2,5,0,3,1,6,6,1,1,2,8,1,1,2,1,1,3,1,爱天使公益社团,NA,NA,NA,NA,2, , , , ,5,5,5,6,6,6,5,9,2,5,5,5,5,2,4,5,1,5,2,1,2,1,4,4,2,1,1,2,1,2,2,1,4,4,3,1,5,2,2,4,2,4,2,5,4,3,5,5,5,1,5,5,1,1,2,5,1,1,1,2,4,2,2,3,4,1,2.53846153846154,2,2,2,4,2,1,3,4,3,3,2,5,4,1,36.4,36.5,1,36.45,1,16,7,3,1.76561828381569,-1.5977965214968,Tsinhua
1995,2,4,2,3,2,2,3,4,3,3,2,3,2,2,3,3,3.38888888888889,4,4.44444444444444,3.88888888888889,71,3.72222222222222,0,2.72727272727273,1,2,3,4,3,6,4,5,4,3,2,2,3,5,3,2,5,3,2,4,2,6,5,3,6,2,5,5,3,1,4,2,2,3,5,4,5,11:07:45,2.6,2,12,3,4,4,4,5,5,4,5,5,4,4,6,5,5,6,2,5,24,4.33333333333333,3.72727272727273,4,4,4,4,4,4,4,4,3,2,4,4,4,2,4,4,4,4,4,5,2,2,3,3,4,2,2,2,2,2,3,2,3,3,2.53846153846154,2,2,2,1,0,4,4,5,0,4,4,6,6,1,1,2,8,1,1,1,4,2,2,2,NA,NA,NA,NA,NA, , , , , ,3,2,4,3,4,5,5,9,3,2,4,4,4,2,2,3,4,4,3,1,2,2,4,5,4,3,4,4,3,3,4,4,2,2,3,3,2,4,4,3,4,4,2,5,5,4,4,2,4,3,3,4,4,4,4,4,3,3,4,2,3,2,4,4,2,3,3,2,3,4,3,3,4,3,4,4,2,2,3,1,4,37.2,37.1,1,37.15,1,14,7,3,-.466255263816209,.812023171576742,Tsinhua
1996,2,2,2,2,2,4,3,3,2,2,2,2,4,1,3,3,2.88888888888889,0,5,4,21,2.77777777777778,0,2.36363636363636,1,6,3,2,3,6,2,2,3,5,2,1,3,2,2,2,2,4,2,4,2,2,3,2,2,3,4,2,2,2,5,2,5,3,3,2,2,11:10:16,2.6,2,8,3,5,5,5,5,5,5,5,5,5,4,5,6,3,3,1,3,49,5.83333333333333,3.81818181818182,3,2,5,3,4,3,5,4,4,4,5,5,5,2,4,5,3,2,5,5,2,2,4,3,2,2,2,1,2,4,4,1,3,1,2.38461538461538,2,2,2,1,0,4,4,5,0,4,1,8,8,1,1,2,8,3,6,8,5,1,5,1,团委志愿组,图书馆助理分队, , , ,3,7, , , ,3,1,5,7,7,4,6,9,5,1,5,5,5,4,2,2,3,5,4,2,2,2,4,4,3,1,1,5,5,3,4,5,1,1,2,1,2,4,4,4,2,5,5,4,4,5,2,2,4,4,5,5,4,1,5,5,5,1,4,1,5,5,5,4,2,2,3.53846153846154,4,4,4,4,3,3,4,3,5,4,2,4,3,3,36.7,36.7,1,36.7,1,11,7,3,-1.0570453205423,-.468193540368576,Tsinhua
1996,1,3,3,2,2,4,4,2,4,2,2,1,4,2,2,2,4.83333333333333,0,4,3.33333333333333,64,2.55555555555556,0,2.63636363636364,1,6,3,6,5,5,5,5,6,5,5,4,5,5,6,3,5,5,3,6,1,3,2,2,2,5,2,2,2,1,5,1,3,2,3,2,2,11:10:26,2.2,2,28,3,4,4,5,4,4,4,4,3,4,3,4,5,4,4,4,5,21,5.33333333333333,2.09090909090909,2,2,2,3,2,2,3,2,1,2,2,3,4,4,4,2,2,3,4,4,2,4,2,4,2,4,1,3,4,4,4,2,5,3,3.23076923076923,1,2,2,1,0,4,4,5,0,6,3,5,5,1,1,2,3,1,1,1,1,2,1,1,学习分组, , , , ,3, , , , ,5,3,3,5,5,6,6,9,2,3,3,3,4,3,3,3,3,4,2,1,3,2,3,4,4,3,3,4,3,3,4,3,2,4,3,3,3,3,3,3,3,4,2,4,4,4,4,2,3,4,3,4,3,3,4,3,3,3,4,2,4,3,4,4,2,3,2.23076923076923,2,2,2,2,2,2,4,2,2,2,2,5,2,3,36.5,36.6,1,36.55,1,12,7,3,1.24047156672583,-.769421002002768,Tsinhua
1996,1,1,2,1,2,3,3,2,4,1,2,1,2,1,3,1,3.72222222222222,0,3.44444444444444,2.22222222222222,74,2.11111111111111,0,2,1,5,2,3,5,6,3,3,4,5,2,2,3,5,4,3,6,4,2,4,1,2,6,2,2,2,1,1,3,2,2,2,2,1,2,1,2,11:10:50,1.6,2,0,3,4,3,4,4,3,3,4,3,3,4,6,6,5,5,1,5,18,6,2,2,2,2,2,2,2,2,2,2,2,2,3,2,2,2,2,2,3,2,2,2,2,4,4,2,4,2,4,3,4,3,4,3,3,3.23076923076923,1,2,2,1,0,4,2,5,0,4,1,5,1,1,1,2,8,1,2,2,1,2,1,1,心理咨询小组,学术讨论小组,NA,NA,NA,6, , , , ,6,4,4,6,7,5,5,9,1,4,4,4,5,2,4,5,2,5,1,2,3,5,4,4,5,5,4,4,3,4,4,3,1,3,1,1,4,4,2,4,2,2,1,1,4,3,3,2,4,3,5,4,3,3,4,4,4,3,5,2,4,5,5,4,3,2,2.61538461538462,3,2,5,2,2,2,4,2,2,2,4,4,2,2,39.4,37.05,1,38.225,1,16,7,3,-.072395225998815,-1.37187592527115,Tsinhua
1994,3,3,3,2,4,2,4,2,2,3,3,2,3,2,3,2,2.33333333333333,0,4,2.77777777777778,62,2,0,2.81818181818182,1,2,2,2,2,4,2,2,2,2,4,2,2,4,2,2,2,2,2,2,2,2,2,2,2,2,2,2,2,2,2,2,2,2,2,2,2,11:10:57,2.4,2,0,3,4,4,4,4,4,4,4,4,4,4,5,5,3,4,2,5,24,4.16666666666667,2.81818181818182,4,2,3,3,2,2,3,4,2,3,3,2,3,2,3,3,3,2,3,4,1,3,4,4,4,2,3,4,3,4,4,4,3,3,3.46153846153846,2,2,2,1,0,4,2,5,0,4,6,5,3,1,1,2,8,1,1,1,8,2,1,2,na,na,na,na,na, , , , , ,3,2,4,5,4,3,3,9,3,2,4,4,4,3,3,3,3,2,2,4,3,2,3,3,4,4,4,4,3,4,4,3,2,2,2,2,3,4,2,3,2,4,4,3,4,3,3,2,4,3,3,4,4,3,4,4,4,4,4,2,2,4,4,3,2,4,2.53846153846154,2,3,3,3,3,2,2,3,2,4,2,4,2,2,36.3,36.1,1,36.2,1,15,7,3,-1.71347871690462,-1.52248965608825,Tsinhua
1997,2,2,2,2,2,2,2,3,2,3,2,2,4,2,3,3,2.22222222222222,0,3.88888888888889,2.11111111111111,72,2.44444444444444,0,2.18181818181818,1,3,1,1,2,4,3,2,2,1,2,2,2,2,2,1,4,4,2,4,2,3,1,2,1,2,2,2,3,3,3,3,2,3,3,2,3,11:14:25,2.8,2,0,3,4,4,4,4,4,4,3,4,4,3,4,3,2,2,2,5,24,4.16666666666667,2.09090909090909,2,2,2,2,2,2,2,2,2,3,2,2,2,2,3,2,2,2,2,2,1,3,2,4,3,3,3,2,4,2,3,4,3,3,3,2,2,2,1,0,4,4,5,0,8,2,6,6,1,4,2,5,1,1,1,3,2,2,2, , , , , , , , , , ,3,3,3,4,5,5,5,9,3,3,3,4,4,2,2,2,2,4,4,2,2,2,3,4,4,3,2,4,4,3,4,4,2,2,2,2,3,2,2,2,4,3,2,2,2,3,4,3,3,3,4,3,2,3,4,3,2,3,3,3,3,3,3,3,2,4,2.30769230769231,1,1,1,3,3,3,3,1,4,4,1,3,4,1,36.88,36.8,1,36.84,1,14,7,3,-1.84476539617709,-.920034732819864,Tsinhua
1994,3,2,2,2,4,2,4,2,3,1,4,3,4,1,2,1,3.33333333333333,0,4.33333333333333,2.11111111111111,70,3.88888888888889,0,2.63636363636364,1,3,4,4,4,3,3,2,5,5,4,3,2,5,2,2,4,3,2,3,3,3,3,4,4,5,3,4,4,3,6,3,5,5,5,3,4,11:14:29,2.2,2,0,3,5,5,5,4,5,5,4,3,3,3,5,4,2,2,2,4,19,3,1.63636363636364,3,2,2,1,2,1,1,2,2,1,1,1,3,1,2,1,2,1,4,4,2,4,3,4,4,5,1,1,2,5,3,2,3,3,3.07692307692308,2,2,2,1,0,4,2,5,0,3,1,4,3,1,1,2,8,1,1,1,2,2,1,1,招生就业处学生助理部,社团,寝室,班级,NA,4,2, , , ,3,1,4,4,2,2,3,9,1,1,4,5,4,4,3,3,3,5,4,2,4,2,3,2,2,3,4,5,4,2,3,4,3,2,3,1,4,2,2,3,1,5,3,4,2,2,2,2,4,4,4,3,2,2,4,4,4,2,1,2,2,3,3,3,3,4,2.61538461538462,2,2,2,4,3,2,3,2,3,4,2,2,4,1,36.8,36.6,1,36.7,1,14,7,3,-.531898603452441,1.03794376780239,Tsinhua
1994,2,3,4,3,2,4,4,2,2,3,2,2,3,1,3,3,4.33333333333333,0,4.44444444444444,3,61,3,0,2.81818181818182,1,5,4,3,4,4,5,6,3,5,6,4,5,5,5,2,5,5,2,5,3,3,2,2,3,2,2,3,3,3,5,2,3,4,3,2,4,11:16:44,2.4,2,0,3,4,5,5,5,5,4,4,4,4,3,3,4,2,3,2,2,12,4.16666666666667,1.54545454545455,2,1,3,1,1,1,1,1,2,2,2,3,3,2,4,4,2,2,4,3,2,3,3,3,5,5,1,3,4,3,4,3,2,4,3.30769230769231,2,2,2,1,0,4,2,5,0,8,1,6,3,1,1,2,2,1,1,1,1,2,1,2, , , , , , , , , , ,7,2,4,4,3,3,4,9,0,2,4,4,4,2,2,2,4,3,2,2,2,2,3,4,4,3,3,5,4,3,4,3,2,2,2,2,2,4,4,2,3,4,3,4,4,4,3,2,3,4,4,4,2,2,4,2,2,2,4,4,3,4,2,3,3,2,3.53846153846154,4,4,4,4,4,3,4,3,4,4,2,4,3,3,37.1,36.8,1,36.95,1,10,7,3,.64968150999974,-.166966078734383,Tsinhua
1993,2,1,1,2,2,2,2,1,3,1,1,2,1,1,4,2,3.22222222222222,0,4.66666666666667,2.66666666666667,82,3.05555555555556,0,1.63636363636364,1,3,4,3,5,5,1,2,2,5,5,2,2,2,7,1,2,6,1,6,1,3,1,2,2,2,1,2,2,3,6,4,5,3,5,2,5,11:20:29,2,2,0,3,4,5,5,5,5,4,4,5,5,4,6,7,5,6,2,6,27,6.5,2.45454545454545,4,4,4,4,5,1,1,1,1,1,1,2,4,1,4,3,1,1,4,4,2,4,3,4,1,4,1,4,4,4,4,2,4,1,3.07692307692308,2,2,2,1,0,4,2,5,0,8,3,6,5,1,1,2,7,3,2,2,8,2,1,1,心理咨询室, , , , ,2, , , , ,7,1,4,5,7,7,7,9,4,1,4,5,5,5,1,1,5,5,1,1,2,2,5,5,3,5,2,5,4,2,5,2,1,1,2,1,4,4,4,4,1,5,4,4,2,2,5,2,5,2,5,5,4,1,5,5,5,5,1,2,5,4,4,2,4,4,1.76923076923077,1,2,4,2,2,1,2,1,1,2,2,5,1,2,36.7,37.2,1,36.95,1,17,7,3,-.663185282724906,-.0916592133258356,Tsinhua
1997,3,2,3,2,2,4,4,4,4,3,2,2,2,2,4,2,5.11111111111111,0,4.77777777777778,3.88888888888889,87,3.33333333333333,0,3,1,6,5,5,5,6,6,5,6,3,5,3,5,6,6,5,5,5,5,5,2,6,1,2,7,6,2,2,2,2,4,2,6,3,3,2,3,11:20:45,2.4,2,20,3,5,5,4,5,5,5,4,5,5,3,3,4,3,2,1,3,29,5,3.63636363636364,4,4,3,4,3,3,4,4,4,3,4,4,4,4,4,3,4,4,4,4,2,3,3,3,3,3,2,3,3,2,3,2,3,2,2.69230769230769,1,2,2,1,0,4,4,5,0,3,1,6,6,1,1,2,8,1,1,1,5,2,1,1,桌游协会,青年传媒中心,NA,NA,NA,5,3, , , ,5,2,4,5,4,6,6,9,4,2,4,5,5,3,2,3,3,5,2,1,3,3,4,4,4,3,3,4,5,3,4,4,2,2,3,2,3,4,4,4,3,3,2,3,4,3,2,2,4,3,4,4,3,2,4,3,3,3,3,2,4,3,3,4,2,2,2.76923076923077,3,3,3,3,3,2,3,2,3,3,3,4,3,2,36.7,36.6,1,36.65,1,17,7,3,1.56868826490699,.284875113716905,Tsinhua
1997,4,3,2,3,3,3,4,3,4,3,3,2,3,2,3,2,4.5,0,3.77777777777778,3.88888888888889,87,2.94444444444444,0,3.18181818181818,1,6,5,4,3,6,3,4,5,4,5,3,5,6,6,5,3,6,2,5,2,5,3,5,3,4,2,4,2,2,2,2,4,2,2,1,3,11:22:39,2.4,2,2,3,3,4,4,5,4,3,3,4,4,3,2,4,2,2,2,3, ,5.66666666666667,4.27272727272727,5,4,4,3,4,4,5,5,5,4,4,4,4,4,4,4,4,4,3,4,2,3,2,3,2,4,2,2,3,2,4,2,2,2,2.53846153846154,1,2,2,1,0,4,4,5,0,8,3,4,2,1,1,2,8,1,1,1,3,2,1,2,音乐之友,自助科研,NA,NA,NA,2,2,0,0,0,6,2,4,5,6,5,5,10,2,2,4,4,4,2,2,3,3,5,4,1,3,3,4,4,4,4,4,4,4,3,4,4,2,2,3,2,3,4,4,3,2,3,2,4,5,3,3,3,4,4,4,4,4,4,4,2,3,4,4,2,4,4,4,5,3,2,2.92307692307692,4,4,3,3,2,3,3,2,2,2,3,4,4,3,36.8,36.7,1,36.75,1,17,7,3,.846611528908437,-.242272944142931,Tsinhua
1922,2,2,2,2,2,2,2,2,2,1,2,2,2,2,2,2,2.88888888888889,0,3.22222222222222,3,64,4.11111111111111,0,1.90909090909091,1,4,2,2,2,5,2,2,2,5,2,2,2,4,2,2,5,5,2,5,2,6,5,4,5,5,2,5,2,3,5,2,5,4,6,6,2,11:28:28,2,2,0,3,4,4,4,4,3,3,2,2,3,2,2,4,2,2,2,2,18,5.33333333333333,2.72727272727273,4,4,2,4,2,2,2,2,5,1,2,2,3,2,3,3,2,4,4,4,2,4,4,4,4,4,2,2,4,4,4,4,4,3,3.61538461538462,2,2,2,1,0,1,1,5,0,6,2,7,3,1,1,2,5,3,1,2,3,2,1,1,十六点驿站,NA,NA,NA,NA,3, , , , ,3,2,4,6,7,6,6,9,1,2,4,5,3,2,2,4,3,4,2,1,3,2,4,4,4,2,3,4,4,3,4,4,3,2,4,1,4,2,3,2,2,4,1,2,4,2,2,1,5,3,4,3,2,2,4,2,3,2,4,2,2,3,2,2,4,2,2.53846153846154,2,4,5,3,3,1,4,2,2,3,1,5,2,1,36.8,36.7,1,36.75,1,12,7,3,-1.0570453205423,1.33917122943658,Tsinhua
1994,2,2,3,2,2,4,2,2,2,2,3,2,2,2,2,1,3.22222222222222,0,4.33333333333333,3.11111111111111,65,3.33333333333333,0,2.36363636363636,1,4,4,3,3,4,2,3,3,3,3,3,3,5,3,3,3,3,3,3,3,4,3,4,3,3,3,3,3,3,5,3,3,3,4,3,4,11:29:36,1.8,2,0,3,4,4,4,5,4,5,4,4,5,4,4,7,5,6,2,2,18,5,2.81818181818182,4,4,4,3,2,2,3,3,2,2,2,3,4,2,4,2,2,4,3,4,2,3,4,4,4,4,2,3,2,4,4,3,2,4,3.30769230769231,2,2,2,1,0,4,4,5,0,6,4,6,4,1,1,2,6,1,1,1,1,2,1,2,NA,NA,NA,NA,NA, , , , , ,5,2,4,5,6,5,4,9,2,2,4,4,4,2,2,2,3,4,2,2,4,4,3,4,4,3,2,4,3,3,4,4,2,2,3,2,2,3,3,2,4,4,2,4,4,2,3,2,4,3,4,4,2,2,4,4,3,3,4,3,4,4,3,4,2,4,2.23076923076923,2,3,3,2,2,2,3,2,2,3,2,4,2,1,37.1,37.1,1,37.1,1,16,7,3,-.663185282724906,.284875113716905,Tsinhua
1994,2,3,1,2,2,2,3,2,2,2,1,3,2,1,2,2,4.16666666666667,0,2.44444444444444,3.11111111111111,86,3.83333333333333,0,2,1,5,5,4,5,4,4,4,5,5,3,5,5,3,3,3,3,6,3,6,3,5,4,4,5,5,3,4,2,3,2,3,4,3,6,3,4,11:30:15,2,2,13,3,3,3,2,2,2,2,3,2,3,4,4,4,2,2,3,3,12,1.16666666666667,2.81818181818182,5,4,4,4,3,2,2,1,2,2,2,3,3,2,4,4,2,2,4,4,1,5,2,2,3,4,1,1,1,2,2,2,2,2,2.23076923076923,1,2,2,1,0,4,2,5,0,4,1,4,3,1,1,2,8,1,1,1,1,2,1,2, , , , , , , , , , ,2,2,4,1,1,1,1,9,1,2,4,4,4,4,2,3,4,4,4,2,2,3,5,4,3,3,2,4,2,4,4,4,2,3,2,2,5,4,2,3,4,4,4,3,4,2,4,1,4,4,4,3,2,3,4,4,2,2,3,4,3,2,3,2,5,2,3.53846153846154,4,4,4,4,4,2,3,4,2,4,3,5,4,4,36.8,36.7,1,36.75,1,19,7,3,.452751491091044,.962636902393838,Tsinhua
1993,2,2,3,3,4,3,2,2,3,2,2,2,2,2,2,2,3.61111111111111,0,3.66666666666667,2.77777777777778,72,2.33333333333333,0,2.54545454545455,1,5,5,3,4,7,2,5,3,4,5,5,2,1,2,2,5,3,2,3,2,2,2,1,1,5,1,2,3,2,3,2,4,2,3,2,2,11:30:34,2,2,12,3,4,4,3,3,4,4,3,4,4,3,3,5,3,3,1,2,14,2,3,4,4,4,4,2,2,2,2,3,2,4,4,4,3,4,2,2,2,2,2,1,2,2,3,4,4,2,3,2,4,3,2,2,4,2.84615384615385,1,2,1,1,0,4,1,4,1,4,3,3,3,1,1,2,3,1,1,1,1,2,1,2,na,na,na,na,na, , , , , ,2,2,4,2,2,2,1,10,1,2,4,4,4,2,3,2,4,4,2,2,2,2,3,4,3,2,2,4,4,2,3,3,2,2,3,2,3,2,2,2,4,3,2,2,4,3,4,2,2,4,3,4,2,3,3,2,3,3,2,2,4,4,3,4,2,4,2.53846153846154,2,2,2,2,3,4,4,1,4,4,1,2,3,1,36.4,36.5,1,36.45,1,14,7,3,-.20368190527128,-1.07064846363696,Tsinhua
1994,4,5,3,3,5,5,4,5,5,5,5,3,3,1,4,2,5.11111111111111, ,4.88888888888889,3.11111111111111,79,4,0,4.45454545454545,1,6,5,4,5,7,5,3,4,4,7,5,5,5,4,4,6,7,6,5,3,5,4,6,4,6,5,3,3,4,4,4,6,4,2,3,1,11:33:00,2.6,2,0,3,4,5,5,5,5,5,5,5,5,5,7,7,3,3,3,2,33,4.66666666666667,2.81818181818182,4,3,4,3,2,2,3,3,2,2,3,3,3,4,4,2,4,2,3,3,2,4,1,4,4,4,3,2,3,4,5,3,4,4,3.46153846153846,2,2,2,1,0,4,2,5,0,5,4,5,4,1,1,2,8,1,1,8,4,1,8,1,青年志愿者协会,运动俱乐部,诗歌朗诵协会, , , , , , , ,3,2,4,5,4,6,5,9,3,2,4,4,4,4,5,4,4,5,3,1,2,1,2,5,3,3,3,5,5,3,4,3,3,2,4,2,3,3,4,4,4,4,4,3,5,4,3,1,3,3,4,4,4,3,4,4,4,4,2,3,4,4,4,4,2,4,3,4,3,4,3,3,2,4,3,3,2,3,4,2,3,36.4,36.6,1,36.5,1,14,7,3,1.56868826490699,1.18855749861948,Tsinhua
1993,2,1,2,3,2,1,1,4,1,2,1,4,2,1,4,2,2.88888888888889,2,4.66666666666667,3.55555555555556,86,2.94444444444444,0,1.81818181818182,1,5,3,2,4,4,2,4,3,2,2,2,3,4,2,2,3,2,3,3,2,2,2,2,5,3,2,3,3,3,3,3,5,2,4,3,3,11:34:17,2.6,2,3,3,5,5,5,4,5,4,5,4,5,3,2,4,2,2,2,2,23,4.5,3.27272727272727,4,4,4,2,2,3,4,4,2,4,3,4,4,3,4,4,2,2,4,5,2,4,3,5,4,2,2,4,3,3,3,2,2,4,3.15384615384615,1,2,2,1,0,4,2,5,0,4,1,4,2,1,1,1,2,3,2,1,1,2,1,2,高中同学,社联,室友,大学同学,NA,2,1,3,5, ,3,2,2,5,5,5,4,9,0,2,2,3,4,4,3,2,5,4,3,2,2,2,4,4,4,3,2,4,3,3,4,4,3,3,3,1,2,2,5,3,4,4,1,4,4,2,1,4,4,4,4,4,1,4,3,4,4,3,4,2,3,4,3,4,2,2,2.46153846153846,2,4,3,2,2,2,2,2,2,2,4,4,2,3,36.1,36.4,1,36.25,1,19,7,3,-1.0570453205423,-.242272944142931,Tsinhua
1992,2,2,2,3,2,2,3,2,4,3,3,2,2,2,2,2,3.88888888888889,3,3.77777777777778,2.55555555555556,86,3.27777777777778,.5,2.54545454545455,1,4,5,3,5,6,2,5,3,5,4,3,5,5,3,2,2,6,2,2,2,5,2,2,5,4,3,2,2,3,5,3,5,3,5,3,3,11:40:20,2,2,1,3,4,4,3,4,4,4,4,3,4,4,3,4,1,2,2,3,31,5.66666666666667,2.90909090909091,4,2,4,4,4,2,2,2,2,2,4,2,3,2,4,3,2,2,3,2,2,4,3,4,4,4,2,2,2,4,4,4,2,4,3.30769230769231,1,1,2,1,0,4,4,5,0,5,2,4,4,1,1,2,4,1,1,1,6,2,1,2,高中同学,大学同学,亲戚, , ,2,5,3, , ,5,2,5,6,6,6,5,9,2,2,5,4,4,2,4,5,2,5,3,2,4,4,2,4,4,2,2,4,2,3,3,2,2,3,2,1,4,5,3,4,3,4,4,4,4,3,2,2,2,2,4,4,2,4,4,2,2,2,3,2,2,2,2,3,2,2,2.46153846153846,3,2,2,2,2,2,4,2,2,4,2,4,3,2,36.4,36.5,1,36.45,1,19,7,3,.124534792909882,.209568248308357,Tsinhua
1995,2,3,2,2,2,3,4,2,3,2,3,3,3,2,3,2,4.38888888888889,0,4.22222222222222,3.33333333333333,72,3.11111111111111,0,2.54545454545455,1,6,5,5,6,5,3,5,5,5,4,5,3,4,2,5,3,5,3,2,2,3,2,3,3,4,3,3,4,2,5,2,5,2,3,4,4,11:45:55,2.6,2,0,3,5,4,4,3,4,5,3,5,5,5,3,7,6,6,4,3,19,4,3.27272727272727,4,4,4,4,3,3,2,2,2,4,4,3,4,3,4,2,3,3,4,4,2,3,3,4,2,3,1,3,4,4,4,3,3,4,3.15384615384615,2,2,2,1,0,4,2,5,0,8,2,5,2,1,1,2,6,1,1,8,1,1,1,2, , , , , , , , , , ,4,1,5,3,4,4,5,9,2,1,5,4,4,5,3,3,4,5,3,1,3,4,3,4,4,3,4,3,3,2,3,3,3,3,3,1,2,4,4,1,4,4,2,5,4,4,2,2,4,3,4,4,3,1,4,3,2,3,3,3,2,2,2,2,2,4,2.92307692307692,2,3,3,3,4,3,4,2,3,4,2,3,3,2,36.7,36.7,1,36.7,1,14,7,3,.715324849635973,-.0163523479172872,Tsinhua
1995,2,2,2,4,2,2,2,2,2,2,2,4,2,4,2,4,4,1,3.88888888888889,2.11111111111111,89,4,0,2.18181818181818,1,4,4,4,4,4,4,4,4,4,4,4,4,4,4,4,4,4,4,4,4,4,4,4,4,4,4,4,4,4,4,4,4,4,4,4,4,12:17:07,3.2,2,1,3,4,4,4,3,4,4,4,4,4,4,6,4,6,6,4,6,35,6.83333333333333,2.36363636363636,4,2,2,4,2,2,2,2,2,2,2,2,2,2,3,2,2,2,2,2,2,3,3,3,3,3,3,2,3,3,4,1,3,4,2.92307692307692,1,2,2,1,0,4,4,5,0,8,3,8,8,1,1,2,8,1,1,8,8,2,1,2, , , , , , , , , , ,6,2,2,7,7,7,7,9,4,2,2,2,2,2,2,2,2,2,2,2,2,2,2,2,2,2,2,2,2,2,2,2,2,2,2,2,2,2,2,2,2,2,2,2,2,3,3,3,3,3,3,3,3,3,4,4,4,4,4,4,4,4,4,3,3,3,3,3,3,3,3,3,3,3,3,3,3,3,3,3,3,36.7,36.7,1,36.7,1,12,7,3,.255821472182346,1.18855749861948,Tsinhua
1995,2,2,4,3,3,2,3,2,4,2,2,4,3,2,3,2,2.83333333333333,0,4,3.11111111111111,70,3.22222222222222,0,2.63636363636364,1,2,3,2,2,6,2,4,5,1,2,1,2,3,2,5,2,5,2,3,2,2,5,2,6,3,2,2,2,2,5,2,6,3,5,3,3,13:25:56,2.8,2,0,3,4,4,4,4,4,5,1,5,5,3,5,4,2,2,2,2, ,5.16666666666667,2.72727272727273,4,4,3,3,3,3,2,2,2,2,2,3,4,2,3,3,4,2,4,3,1,3,3,4,5,5,1,4,3,4,4,2,2,3,3.30769230769231,2,2,2,1,0,4,4,5,0,2,1,6,5,1,1,2,4,1,1,3,1,2,1,2,书法协会,青年志愿者协会,NA,NA,NA,1,3,0,0,0,5,4,4,6,5,5,4,10,2,4,4,2,4,4,2,2,4,4,3,4,1,1,2,1,3,1,1,4,5,2,4,4,2,2,2,2,2,4,4,2,3,4,2,2,2,3,2,2,2,4,4,4,3,2,4,4,2,2,4,2,3,4,3,4,2,3,1.92307692307692,1,2,3,1,2,1,2,3,1,3,1,5,3,2,36.2,36.2,1,36.2,1,14,7,3,-1.12268866017853,.134261382899809,Tsinhua
1994,2,3,2,2,3,3,2,3,4,3,2,2,4,2,2,2,2.88888888888889,.5,3.88888888888889,2.55555555555556,64,3.05555555555556,0,2.63636363636364,1,3,2,2,3,5,3,2,4,2,3,3,3,5,2,2,3,3,2,3,3,4,3,3,3,2,3,3,3,3,3,3,2,3,4,4,3,9:26:08,2.4,2,1.5,2,4,4,4,4,4,3,4,4,4,2,3,4,2,3,2,3,15,4.5,2,2,2,2,2,2,2,2,2,2,2,2,2,2,2,2,2,3,3,3,4,1,3,2,4,4,4,2,2,2,3,4,3,2,3,2.92307692307692,2,2,1,1,0,4,4,5,0,3,3,3,2,1,1,2,8,1,1,1,1,2,1,1, , , , , , , , , , ,3,2,4,5,5,4,4,9,2,2,4,5,3,3,4,4,3,5,2,1,3,4,4,4,4,3,4,3,3,3,4,3,4,3,4,1,4,4,3,3,2,4,3,2,2,4,3,2,4,3,2,4,4,2,4,4,3,3,4,4,4,3,4,3,1,4,3.07692307692308,4,3,3,3,3,3,3,4,3,3,3,4,2,3,36.8,36.8,1,36.8,1,12,7,3,-1.0570453205423,-.0916592133258356,Tsinhua
1996,4,2,2,3,2,3,4,3,4,3,4,2,3,2,4,2,4.5,0,4.44444444444444,3.44444444444444,65,3.66666666666667,0,3.09090909090909,1,5,6,5,5,5,4,4,5,4,3,4,4,5,3,7,3,6,3,5,3,6,3,3,5,4,1,4,3,3,3,3,6,3,5,3,3,9:29:50,2.6,2,0,2,4,4,4,5,5,5,5,4,4,3,4,4,4,4,3,4,55,4.66666666666667,3.09090909090909,4,4,4,4,2,2,2,3,3,2,4,3,4,2,3,2,4,4,4,5,2,3,2,3,4,4,2,4,3,2,2,1,2,2,2.61538461538462,2,2,2,1,0,4,4,5,0,8,6,7,6,1,3,2,8,1,3,5,8,2,4,1,班级,商业,志愿,学生工作,辩论, ,6, ,5,4,5,2,2,4,4,5,5,9,4,2,2,4,4,3,3,2,4,4,3,1,2,2,3,3,4,2,3,4,5,3,4,4,2,2,3,2,2,4,3,3,3,4,2,4,4,3,3,2,4,2,4,4,2,3,4,3,2,2,4,4,3,3,4,4,2,4,3,3,4,4,2,3,2,3,2,3,3,3,4,4,3,36.7,36.8,1,36.75,1,16,7,3,.846611528908437,.736716306168193,Tsinhua
1996,2,4,2,3,2,4,4,4,4,2,2,4,3,2,4,3,4.77777777777778,0,4.22222222222222,3.44444444444444,82,3.22222222222222,0,3,1,6,5,5,5,5,5,5,5,5,4,4,5,4,5,5,4,5,4,4,3,3,3,4,2,4,3,3,3,3,4,3,4,3,2,3,4,9:38:08,3.2,2,0,2,5,5,5,4,4,3,4,4,4,1,2,3,2,2,2,2,14,4.33333333333333,3.36363636363636,4,4,4,3,2,4,4,2,3,3,4,4,4,4,4,4,3,2,2,4,2,2,2,2,4,2,2,3,2,2,2,2,2,2,2.23076923076923,2,2,2,1,0,4,4,5,0,5,1,4,3,1,1,2,1,1,1,1,1,2,1,1,学生会,NA,NA,NA,NA, , , , , ,6,2,3,3,6,5,5,9,1,2,3,3,4,2,2,3,4,4,2,2,2,2,3,2,3,2,2,3,3,3,3,3,2,3,2,2,2,3,3,2,3,4,2,4,3,2,2,2,3,2,4,4,2,4,3,2,4,3,2,4,2,4,4,3,2,4,3.30769230769231,2,3,2,5,3,4,5,2,4,5,2,3,4,2,36.7,36.1,1,36.4,1,12,7,3,1.1748282270896,.134261382899809,Tsinhua
1992,2,2,2,1,2,2,2,2,2,2,1,1,1,2,2,2,2.72222222222222,1,3.88888888888889,2.77777777777778,22,3.5,0,1.81818181818182,1,2,4,2,2,4,2,3,4,3,2,2,2,4,2,2,2,5,2,4,2,6,4,2,2,4,4,2,4,4,3,2,2,4,6,4,4,9:41:21,1.6,2,2,2,4,4,4,4,4,4,3,4,4,2,2,2,2,2,1,2,16,3.5,2.72727272727273,4,2,4,4,2,2,2,2,2,2,4,2,4,2,4,2,2,2,3,4,2,4,3,3,4,4,2,4,3,4,4,4,4,3,3.53846153846154,1,2,2,1,0,4,1,5,0,1,0,6,5,1,1,2,8,1,1,1,3,2,1,1,泳协,NA,NA,NA,NA,2, , , , ,2,3,4,4,4,3,3,8,2,3,4,4,4,4,3,4,3,4,4,2,3,3,4,4,4,2,2,4,3,3,4,4,4,3,3,2,4,4,3,4,4,4,2,2,4,4,4,2,4,4,4,4,2,4,3,3,2,2,3,2,4,4,3,3,2,2,2.53846153846154,2,3,4,2,3,2,3,3,3,2,3,4,2,1,35,36.3,1,35.65,1,8,7,3,-1.253975339451,.510795709942549,Tsinhua
1994,2,2,1,2,4,3,3,4,2,2,3,2,4,2,3,3,3.55555555555556,0,3.33333333333333,3.66666666666667,21,4.05555555555556,0,2.54545454545455,1,4,5,5,2,2,4,2,5,3,3,3,3,5,2,4,3,6,3,3,2,5,5,2,5,7,4,4,3,3,5,2,6,5,5,4,3,9:42:57,2.8,2,1,2,4,3,4,3,4,3,2,4,3,3,3,4,2,3,1,2, ,3.83333333333333,3.36363636363636,3,4,3,5,2,3,4,4,2,2,5,4,4,2,5,5,2,3,4,4,1,1,4,2,4,5,2,2,2,3,3,2,2,3,2.69230769230769,2,2,2,1,0,4,4,5,0,6,4,8,4,1,1,1,1,3,1,8,4,2,1,2,NA,NA,NA,NA,NA,0,0,0,0,0,5,4,5,3,4,4,3,9,1,4,5,5,3,2,3,3,1,5,3,2,2,2,3,4,4,2,2,4,3,4,5,4,2,2,2,2,4,5,2,3,3,2,1,3,4,3,4,2,4,1,4,3,2,3,3,3,3,3,2,2,4,5,4,4,3,4,3.46153846153846,2,3,3,3,3,4,4,3,5,5,3,2,3,4,35.7,36,1,35.85,1,11,7,3,-.269325244907512,1.26386436402803,Tsinhua
1995,3,3,2,2,3,2,4,3,3,2,2,2,3,2,3,2,4.22222222222222,0,2.66666666666667,3.11111111111111,79,3.72222222222222,0,2.63636363636364,1,4,4,5,4,5,4,5,5,4,3,5,3,4,5,6,4,4,2,3,3,4,3,3,4,4,2,4,4,4,6,4,5,3,4,3,4,9:50:32,2.4,2,0,2,3,3,2,2,2,3,3,3,3,4,6,4,6,6,4,6,14,4.16666666666667,3.18181818181818,4,3,4,4,2,3,3,3,3,3,3,4,4,2,4,2,2,2,4,4,1,4,4,3,4,3,2,4,1,3,4,3,3,3,3.15384615384615,2,2,2,1,0,4,1,5,0,2,1,3,3,1,1,2,8,1,1,1,4,2,1,2, , , , , , , , , , ,5,2,2,4,4,4,4,9,1,2,2,4,4,2,2,2,4,4,3,1,4,3,3,3,4,4,4,4,2,2,3,3,3,3,3,2,3,2,2,2,4,4,2,4,3,3,2,3,3,4,4,4,4,4,4,4,3,2,4,2,4,3,4,4,3,4,2.69230769230769,3,3,3,3,3,2,3,3,3,3,2,3,2,2,36.8,37.2,1,37,1,17,7,3,.518394830727276,.812023171576742,Tsinhua
1996,3,4,3,2,4,3,4,4,2,4,2,2,4,2,2,2,2.55555555555556,0,3.88888888888889,1.77777777777778,71,3.94444444444444,0,3.18181818181818,1,2,1,2,4,3,2,1,4,3,2,3,2,2,2,5,1,5,2,1,3,5,5,2,3,7,4,4,3,3,7,3,6,3,5,3,4,9:55:53,2.4,2,0,2,4,4,4,3,4,4,4,4,4,4,2,1,2,2,1,2,15,2.16666666666667,2.18181818181818,3,3,4,2,2,1,1,1,3,1,3,1,2,1,3,1,1,2,3,2,2,4,3,3,2,5,3,5,4,1,5,3,4,5,3.61538461538462,2,2,2,1,0,4,4,5,0,7,1,8,4,1,1,2,5,1,1,1,1,2,1,2, , , , , , , , , , ,2,2,2,2,2,2,2,9,2,2,2,5,5,1,1,1,1,4,5,1,3,2,5,5,5,5,5,5,5,3,4,4,3,2,2,2,2,2,2,1,1,5,4,1,5,4,4,2,4,4,4,4,4,4,5,5,2,4,2,4,5,4,4,2,5,4,2.38461538461538,2,2,2,2,2,2,3,2,2,3,4,4,3,2,37,37,1,37,1,16,7,3,-1.45090535835969,1.11325063321093,Tsinhua
1996,5,5,3,4,4,3,4,2,3,4,4,3,3,2,2,1,4.66666666666667,0,4,4.33333333333333,71,2.55555555555556,0,3.72727272727273,1,6,6,6,6,6,4,2,4,6,4,4,2,6,3,4,6,6,3,3,2,2,2,2,4,2,2,2,2,4,2,2,4,2,1,4,4,9:58:15,2.2,2,4,2,4,4,4,4,4,4,4,4,4,3,3,6,2,3,4,2,15,4.66666666666667,4.63636363636364,5,5,5,5,5,5,5,4,4,3,5,5,5,4,4,4,4,4,4,5,1,3,2,4,4,2,1,2,2,2,3,2,2,3,2.46153846153846,2,2,2,1,0,4,4,5,0,8,1,8,4,2,1,1,8,1,1,1,1,2,1,2, , , , , , , , , , ,4,1,5,5,5,5,5,9,2,1,5,4,4,3,2,4,3,4,2,1,2,2,2,3,4,2,2,4,4,2,4,4,2,2,2,2,3,5,4,2,4,4,2,4,4,2,2,2,4,3,4,4,2,2,4,4,3,4,2,2,2,4,3,2,2,4,4.07692307692308,4,3,4,4,4,4,4,4,5,5,3,4,5,4,36.8,36.7,1,36.75,1,16,7,3,1.04354154781713,-.769421002002768,Tsinhua
1994,3,4,4,3,3,3,2,2,3,2,2,2,4,2,4,3,5.38888888888889,0,3.77777777777778,3.77777777777778,21,2.83333333333333,0,2.81818181818182,1,6,5,6,6,7,4,5,6,5,5,3,6,5,7,5,6,5,5,3,2,3,2,2,4,5,2,2,3,3,3,2,5,2,2,2,4,9:58:19,3,2,1,2,4,4,4,4,4,4,4,2,4,5,3,4,2,2,2,2,30,3.66666666666667,3.45454545454545,4,4,4,4,4,4,2,2,2,4,4,4,4,2,4,4,4,4,4,4,1,3,2,3,2,4,2,4,2,2,4,3,2,3,2.76923076923077,1,2,2,1,0,4,2,5,0,8,1,5,5,1,1,2,6,1,1,7,4,2,1,1,弓箭协会, , , , ,9, , , , ,4,3,3,3,4,5,4,9,2,3,3,3,3,3,5,3,3,3,3,3,1,2,4,4,4,3,2,3,4,4,4,4,2,2,3,3,3,4,4,3,2,2,3,2,4,4,4,2,3,2,4,4,3,2,4,3,2,2,3,2,2,4,4,3,2,2,3.46153846153846,4,5,4,4,3,2,4,3,4,4,4,4,2,2,36,36.7,1,36.35,1,11,7,3,1.89690496308815,-.392886674960027,Tsinhua
1995,2,2,2,2,4,2,4,4,4,4,2,2,2,2,4,2,3.94444444444444,0,3.55555555555556,3.55555555555556,72,3.44444444444444,0,2.90909090909091,1,2,3,3,5,5,3,3,6,6,3,2,3,5,5,6,3,5,3,6,3,4,3,3,4,2,3,3,3,3,5,3,2,4,5,3,3,9:58:49,2.4,2,.6,2,4,4,2,3,3,4,4,4,4,2,2,1,2,2,2,3,25,5.16666666666667,3.72727272727273,4,4,4,4,4,2,4,3,4,4,4,3,4,3,4,4,4,3,3,4,1,4,4,4,4,4,2,3,2,3,2,4,4,3,3.30769230769231,1,2,2,1,0,4,4,5,0,1,0,4,1,1,1,2,1,1,8,1,1,2,1,1,社团联合会, , , , ,20, , , , ,6,4,4,5,5,5,6,8,1,4,4,4,4,2,4,4,2,4,4,4,2,2,4,2,2,2,2,4,2,4,4,2,2,2,2,2,2,2,2,2,4,4,2,4,2,2,2,2,4,2,2,4,2,4,4,2,4,2,2,2,4,2,4,4,4,2,2.76923076923077,2,3,2,3,3,3,3,2,4,4,1,3,4,2,36.6,36.5,1,36.55,1,14,7,3,.190178132546114,.435488844534002,Tsinhua
1997,4,2,2,4,3,4,4,3,3,2,2,2,3,2,4,2,4.05555555555556,0,4.55555555555556,3,66,3.94444444444444,0,3,1,4,4,4,4,4,5,4,4,4,4,4,4,4,4,4,4,4,4,4,4,4,4,4,4,4,4,4,3,4,4,4,4,4,4,4,4,10:01:25,2.6,2,0,2,4,4,4,4,5,5,5,5,5,3,2,4,2,2,2,2,25,4,3.18181818181818,4,4,4,3,3,3,3,2,2,3,4,2,3,2,4,4,2,2,4,4,2,4,3,2,5,4,1,4,1,1,3,3,3,4,2.92307692307692,2,2,2,1,0,4,4,5,0,6,4,7,6,1,1,2,4,1,1,1,1,2,1,1,学生会, , , , ,5, , , , ,3,2,4,4,4,5,5,9,2,2,4,4,4,1,1,1,1,4,3,1,2,2,3,4,4,2,2,4,4,3,4,4,3,2,2,2,2,4,4,2,2,3,4,4,4,3,3,2,4,3,4,4,2,3,4,3,2,3,2,2,4,4,3,3,3,3,2.69230769230769,1,2,3,4,4,2,3,2,3,5,2,4,3,1,36.75,36.85,1,36.8,1,13,7,3,.321464811818579,1.11325063321093,Tsinhua
1991,2,4,4,2,4,4,4,2,2,3,2,2,4,1,4,2,4.5,0,5,3,87,3.11111111111111,0,3,1,5,5,5,6,5,5,5,6,3,5,2,4,3,3,5,6,6,2,5,2,3,3,3,3,5,2,3,2,3,4,2,5,3,3,2,3,10:03:55,2.6,2,0,2,5,5,5,5,5,5,5,5,5,2,2,4,2,2,2,4,16,6.5,2.90909090909091,4,4,4,3,3,2,2,2,2,2,4,2,4,1,4,2,4,2,4,4,2,2,3,3,5,5,3,3,2,3,4,1,4,3,3.15384615384615,2,2,2,1,0,4,4,5,0,8,1,5,3,1,1,2,4,1,1,3,1,2,1,2,NA,NA,NA,NA,NA, , , , , ,6,2,4,5,7,7,6,9,1,2,4,4,4,4,2,2,4,4,4,2,1,2,4,4,4,2,4,4,4,4,4,4,2,2,2,2,2,4,4,2,4,4,4,2,4,4,2,2,4,4,4,4,2,2,4,4,2,2,4,3,2,2,2,4,2,4,2.84615384615385,4,3,3,2,2,3,2,4,3,3,2,3,4,2,36.7,37.1,1,36.9,1,17,7,3,.846611528908437,-.0163523479172872,Tsinhua
1996,1,1,2,2,1,1,3,2,2,1,1,2,2,2,2,3,3.16666666666667,0,3.77777777777778,2.77777777777778,87,2.77777777777778,0,1.54545454545455,1,5,3,1,2,4,3,3,2,6,2,4,3,5,2,2,3,3,4,2,2,4,3,2,4,3,2,2,3,2,2,3,2,4,4,3,3,10:09:28,2.2,2,2,2,4,4,4,4,4,4,3,3,4,3,3,5,2,3,2,2,24,3.5,2.54545454545455,4,4,3,4,2,1,3,2,2,1,2,4,3,2,2,2,2,2,4,4,1,5,4,3,5,5,2,4,2,3,4,4,4,5,3.84615384615385,2,2,2,1,0,2,2,5,0,5,2,5,2,1,1,2,3,1,1,5,2,1,8,1,志愿者协会, , , , , , , , , ,4,3,4,3,4,4,3,9,2,3,4,4,3,3,3,1,3,4,2,2,1,2,1,3,4,3,4,4,4,3,4,4,2,2,2,2,2,2,2,2,1,3,3,4,4,5,2,1,4,3,4,3,2,2,3,3,2,2,4,2,2,3,3,3,4,2,2.30769230769231,2,1,2,2,3,2,4,2,1,5,1,3,3,2,37.2,37,1,37.1,1,17,7,3,-.728828622361138,-.468193540368576,Tsinhua
1992,4,2,2,3,2,4,3,3,4,2,2,2,4,2,2,2,3.72222222222222,0,3.88888888888889,3.88888888888889,87,3.05555555555556,0,2.81818181818182,1,6,2,5,5,6,5,2,5,3,2,3,2,2,5,5,2,5,2,6,2,3,2,2,5,3,3,2,2,2,6,2,5,2,3,3,2,10:12:39,2.4,2,0,2,4,4,4,3,4,4,4,4,4,2,2,4,8,4,1,3,33,4,3.27272727272727,4,4,4,4,4,3,2,3,2,3,3,4,4,3,4,4,4,4,4,4,1,4,4,4,5,2,2,4,4,3,4,4,4,2,3.53846153846154,2,2,2,1,0,4,4,5,0,5,3,3,1,1,1,2,2,1,1,1,1,2,8,1,研会,班集体, , , ,5,18, , , ,2,2,2,4,4,4,5,9,2,2,2,3,5,4,3,2,4,3,2,2,2,4,4,2,4,2,2,4,4,3,4,4,2,4,2,4,2,2,4,2,4,4,2,2,4,3,2,2,4,2,3,3,2,2,4,2,2,4,4,2,2,4,4,4,4,3,3.07692307692308,3,3,4,3,4,3,3,2,3,5,2,4,2,3,36.9,37,1,36.95,1,17,7,3,-.072395225998815,-.0916592133258356,Tsinhua
1997,2,3,2,2,4,4,4,4,3,2,2,2,2,2,2,2,4, ,4.22222222222222,3.66666666666667,87,4.27777777777778,0,2.90909090909091,1,5,4,5,4,5,3,3,5,5,3,4,4,3,2,4,5,5,3,5,3,5,4,4,4,5,4,3,4,5,5,3,4,5,6,4,4,10:15:11,2,2,4,2,5,5,4,5,5,4,3,3,4,3,4,7,4,3,3,4,40,5.16666666666667,3.09090909090909,4,3,4,3,4,2,3,3,2,2,4,4,3,3,4,3,4,4,4,4,2,3,3,4,4,4,3,4,4,4,4,3,3,3,3.53846153846154,2,2,2,1,0,4,4,5,0,8,4,5,3,1,1,2,8,2,1,8,1,1,3,1,予爱手语协会,青年传媒中心, , , ,9,19, , , ,5,3,3,5,5,4,4,9,2,3,3,4,4,2,2,2,2,4,3,1,2,2,2,4,4,3,4,5,4,4,4,3,2,2,2,3,2,2,2,3,3,4,2,3,3,3,3,2,4,3,3,4,3,3,4,2,3,2,4,2,3,4,3,4,3,3,2.46153846153846,3,2,4,2,2,3,3,2,2,3,3,4,1,2,36.6,36.8,1,36.7,1,17,7,3,.255821472182346,1.56509182566222,Tsinhua
1996,3,3,4,2,3,3,2,3,3,3,2,3,3,3,2,3,3.94444444444444,0,3.11111111111111,2.88888888888889,61,3.94444444444444,5,2.81818181818182,1,5,3,4,4,4,4,4,4,5,3,4,4,3,3,5,4,4,4,5,4,3,5,4,4,3,4,4,4,3,4,4,4,4,5,3,4,10:19:16,2.8,2,2,2,3,3,3,3,2,3,5,3,3,4,4,4,3,4,3,5,38,3.66666666666667,3.18181818181818,4,2,3,4,3,3,4,3,4,3,2,3,4,3,2,3,3,3,4,1,2,3,4,2,2,3,3,2,3,3,3,3,2,3,2.76923076923077,1,1,2,1,0,4,4,5,0,8,1,8,5,1,1,2,8,1,8,1,1,2,5,2,班集体,青年传播中心, , , ,24,4, , , ,3,3,3,3,5,3,4,9,4,3,3,4,4,2,3,3,3,4,2,2,4,2,3,3,3,2,4,3,3,2,3,3,2,3,4,2,1,3,3,3,3,3,3,3,2,2,4,4,2,3,4,2,3,4,3,2,3,4,2,3,4,3,2,3,4,2,3.07692307692308,2,2,2,3,4,3,4,3,3,3,4,3,4,3,36.8,37.1,1,36.95,1,10,7,3,.190178132546114,1.11325063321093,Tsinhua
1991,2,2,1,3,2,4,2,2,3,2,2,2,2,2,4,2,2.61111111111111,0,3.66666666666667,3.77777777777778,47,4,0,2.27272727272727,1,6,2,2,3,4,3,2,5,2,3,2,3,3,1,2,1,1,2,2,5,5,4,5,6,5,2,2,5,2,6,2,4,3,5,3,6,10:19:18,2.4,2,0,2,4,4,4,4,4,3,4,2,4,3,5,7,2,5,1,1,13,4.83333333333333,3.45454545454545,4,4,4,4,2,2,4,4,4,4,2,4,4,4,4,4,4,2,3,5,1,1,2,3,4,4,2,2,2,2,4,4,2,2,2.61538461538462,2,2,2,1,0,4,4,5,0,5,2,5,1,1,1,1,1,1,1,1,1,2,1,2, , , , , , , , , , ,4,2,4,5,5,5,5,9,1,2,4,3,4,4,2,2,4,4,3,2,2,2,4,3,3,2,2,4,4,4,2,2,2,2,2,2,5,4,2,2,4,2,2,2,4,3,2,2,4,2,4,2,2,2,2,4,2,2,2,2,2,2,4,4,2,4,2.30769230769231,2,2,3,4,3,2,2,3,2,3,1,4,2,1,36.7,36.3,1,36.5,1,5,7,3,-1.38526201872346,1.18855749861948,Tsinhua
1994,4,4,2,2,3,3,4,4,4,4,2,2,3,2,3,2,4.77777777777778,0,3.66666666666667,3.55555555555556,71,3.83333333333333,0,3.27272727272727,1,6,5,5,4,5,5,4,4,5,5,5,5,4,4,6,5,5,4,5,3,3,4,4,4,3,3,3,5,2,5,5,5,5,3,3,4,10:21:37,2.4,2,0,2,4,4,3,2,4,5,4,3,4,3,3,4,2,2,2,3,22,3.5,2.63636363636364,4,3,4,3,2,2,2,2,2,2,3,2,4,3,4,4,3,4,4,4,2,3,3,3,3,2,2,3,3,1,2,3,2,2,2.46153846153846,2,2,2,1,0,4,2,5,0,6,3,6,2,1,1,1,3,2,1,5,1,2,1,2,班委, , , , ,5, , , , ,5,1,3,2,4,4,4,9,1,1,3,4,4,3,2,2,2,4,2,1,3,3,3,4,3,4,4,3,3,3,3,3,3,3,3,1,1,4,4,2,4,3,2,4,4,4,3,2,4,4,3,3,2,2,4,4,3,3,3,3,4,4,3,4,4,3,3.53846153846154,4,4,4,4,3,4,3,4,3,4,2,4,3,4,36.2,36.7,1,36.45,1,16,7,3,1.1748282270896,.962636902393838,Tsinhua
1995,2,2,2,2,2,2,2,2,2,2,2,2,2,2,4,2,3,0,4,2.44444444444444,74,2.72222222222222,0,2,1,6,2,2,5,6,3,2,3,3,3,2,2,2,3,2,2,4,2,6,2,4,2,2,2,2,2,2,2,2,2,2,6,2,5,2,2,10:23:13,2.4,2,0,2,4,4,4,4,4,4,4,4,4,2,2,4,2,2,1,2,18,2,2.18181818181818,4,2,2,2,2,2,2,2,2,2,2,2,2,2,2,2,2,2,4,4,1,4,4,4,4,4,2,4,2,3,4,2,4,4,3.46153846153846,1,2,2,1,0,4,4,5,0,6,3,6,4,1,1,2,3,3,1,2,1,2,1,2, , , , , , , , , , ,2,2,4,2,2,2,2,9,1,2,4,4,4,4,4,4,4,4,2,2,2,2,2,4,4,2,2,4,4,4,4,4,2,2,4,2,4,2,2,2,4,4,2,4,4,4,2,2,4,4,4,4,2,2,4,4,2,2,2,2,2,2,2,4,2,2,2,2,2,2,2,2,2,2,2,2,2,2,4,2,2,37,37.1,1,37.05,1,16,7,3,-.925758641269835,-.543500405777124,Tsinhua
1995,3,2,1,3,2,2,3,2,2,4,3,2,4,2,4,2,3.83333333333333,0,4.88888888888889,2.44444444444444,66,2.05555555555556,0,2.45454545454545,1,5,4,2,5,5,4,2,5,2,5,3,5,3,1,5,4,6,3,3,1,1,2,1,2,2,2,2,1,4,2,2,2,2,1,1,6,10:27:16,2.8,2,9,2,5,5,4,5,5,5,5,5,5,2,2,4,2,3,1,2,26,2.83333333333333,1.09090909090909,2,1,1,1,1,1,1,1,1,1,1,1,3,1,4,1,2,3,3,4,2,4,2,4,1,4,1,2,2,3,3,3,4,3,2.76923076923077,2,2,2,1,0,4,4,5,0,8,1,8,8,1,1,2,8,1,1,8,1,2,1,2,na,na,na,na,na, , , , , ,2,2,4,3,3,3,3,9,3,2,4,4,4,4,5,3,2,4,3,1,2,2,1,3,4,3,4,4,5,4,5,5,1,1,2,2,3,2,4,2,4,5,3,3,3,3,2,1,4,2,4,4,3,2,4,4,4,3,4,2,4,4,3,3,2,4,2.61538461538462,3,3,4,2,3,1,3,3,3,3,2,5,2,2,36.5,36.9,1,36.7,1,13,7,3,.0588914532736497,-1.4471827906797,Tsinhua
1996,2,4,4,3,2,3,4,3,3,3,3,3,2,2,4,3,3.5,0,4.33333333333333,4,72,2.72222222222222,0,3.09090909090909,1,3,2,3,5,7,3,2,2,4,3,3,2,4,5,4,4,5,2,5,2,3,3,2,3,2,3,2,2,2,5,2,2,2,2,3,4,10:28:05,2.8,2,2,2,4,5,4,4,5,5,4,4,4,3,3,4,2,2,2,2,23,4.83333333333333,2.90909090909091,2,4,3,4,2,2,4,2,2,3,4,4,4,3,4,5,4,5,4,3,2,3,4,5,5,4,2,4,4,4,4,3,3,3,3.69230769230769,1,2,2,1,0,4,4,5,0,4,4,3,3,1,1,1,5,3,1,2,1,2,1,1,学生会, , , , ,5, , , , ,3,2,3,6,5,4,5,9,2,2,3,2,4,4,2,3,5,4,2,1,4,3,2,4,4,4,4,5,4,3,4,3,2,3,2,2,3,4,4,2,4,4,4,3,4,4,2,2,4,2,4,3,2,2,4,2,4,3,2,1,3,2,3,4,3,3,2.53846153846154,2,3,3,2,2,2,2,2,3,3,3,4,2,4,36.6,36.5,1,36.55,1,14,7,3,-.334968584543744,-.543500405777124,Tsinhua
1994,2,2,1,3,2,2,4,2,3,2,2,2,1,2,2,2,3.55555555555556,0,4.22222222222222,3.66666666666667,60,3.05555555555556,0,2.27272727272727,1,6,2,3,5,5,2,2,5,5,2,3,4,4,2,2,5,5,2,2,3,3,3,2,5,5,2,3,2,3,4,2,5,2,3,2,4,10:29:06,1.8,2,0,2,4,4,4,4,4,5,5,4,4,4,6,4,4,5,4,5,18,4.33333333333333,2.81818181818182,4,4,4,4,4,1,2,1,3,2,2,3,4,3,4,4,4,3,4,4,2,4,2,3,5,3,2,4,4,3,5,4,3,4,3.53846153846154,2,2,2,1,0,4,4,5,0,7,3,5,5,1,1,2,8,1,1,1,1,2,1,2, , , , , , , , , , ,4,2,4,5,3,4,3,9,3,2,4,4,4,4,4,3,4,4,2,2,2,2,4,4,4,2,2,4,4,2,4,4,3,2,2,2,2,4,3,2,3,4,4,4,4,4,3,2,4,4,4,3,2,2,4,4,3,2,2,1,2,4,4,3,2,4,2.46153846153846,2,3,3,2,2,2,3,2,3,3,2,4,2,3,37,37,1,37,1,13,7,3,-.269325244907512,-.0916592133258356,Tsinhua
1995,5,2,2,4,2,5,4,5,4,4,2,3,2,2,3,1,4.16666666666667, ,3.66666666666667,3,76,2.88888888888889,0,3.54545454545455,1,5,4,3,6,2,4,4,5,2,5,3,6,7,3,7,3,4,2,6,2,2,2,3,2,3,2,2,2,2,5,2,4,3,2,2,6,10:29:11,2.2,2, ,2,4,3,3,4,4,3,5,4,3,2,2,4,2,2,1,3,16,4.16666666666667,2,2,1,3,4,2,2,1,1,1,2,3,1,5,1,2,3,4,4,2,5,2,2,1,4,2,3,2,2,2,1,1,4,3,1,2.15384615384615,1,2,2,1,0,4,1,5,0,8,3,2,1,1,1,2,3,1,1,4,3,2,1,2, , , , , , , , , , ,6,3,4,5,4,2,4,9,1,3,4,4,5,4,3,5,2,4,1,2,3,4,3,5,5,3,2,4,3,3,5,4,3,3,2,2,1,4,4,2,4,5,1,1,1,2,4,3,4,1,4,4,2,2,5,3,2,1,4,3,5,2,3,4,3,1,3.46153846153846,3,4,3,4,4,1,5,2,4,5,4,4,4,2,36.5,37,1,36.75,1,13,7,3,.452751491091044,-.31757980955148,Tsinhua
1996,2,3,3,3,2,2,4,3,3,3,2,2,4,2,3,2,3.61111111111111,0,3.33333333333333,3.22222222222222,64,4.44444444444444,0,2.72727272727273,1,3,4,4,4,4,3,4,5,2,5,2,4,4,3,4,3,4,3,5,4,6,5,4,5,5,3,5,4,2,6,4,5,4,5,4,4,10:29:25,2.6,2,8,2,4,4,3,4,4,2,3,3,3,4,4,4,2,2,1,3, ,3.83333333333333,2.81818181818182,3,3,3,3,3,3,3,2,2,3,3,3,4,2,4,3,3,2,4,4,2,3,2,3,3,4,2,3,2,3,3,2,3,3,2.76923076923077,2,2,2,1,0,4,2,5,0,1,0,7,4,1,1,2,3,3,1,1,1,2,1,1,跆拳道,寝室,NA,NA,NA,5,4,0,0,0,3,3,3,4,4,4,4,9,0,3,3,3,4,2,2,3,3,4,3,2,2,2,3,4,3,2,2,4,4,3,4,4,2,2,3,2,2,4,4,2,2,4,2,2,2,2,3,2,4,3,4,3,2,3,4,3,3,2,2,2,3,3,3,3,3,2,3,3,3,2,3,4,3,3,3,4,5,2,2,3,1,36.6,36.7,1,36.65,1,12,7,3,-.20368190527128,1.79101242188787,Tsinhua
1990,4,2,2,3,3,4,2,3,3,5,2,2,4,1,4,2,4.5,0,5,4.22222222222222,51,3.38888888888889,0,3,1,5,5,5,4,6,6,5,3,4,5,3,5,4,5,4,3,4,5,4,2,5,3,5,5,5,3,2,5,2,2,2,3,2,4,4,3,10:30:20,2.6,2,4,2,5,5,5,5,5,5,5,5,5,3,3,4,3,3,2,2,19,5.5,3.45454545454545,4,5,3,4,3,3,2,3,5,2,4,5,4,3,4,5,4,5,4,4,1,2,2,3,1,5,2,4,1,3,5,2,3,2,2.69230769230769,1,2,2,1,0,4,4,5,0,2,1,2,2,1,2,2,3,3,2,2,3,2,2,2,NA,NA,NA,NA,NA, , , , , ,5,4,5,6,5,5,6,9,1,4,5,5,4,3,3,4,3,4,4,5,4,3,4,4,3,3,3,4,5,4,4,5,4,2,4,4,4,4,4,5,4,4,5,5,5,4,4,2,4,4,4,4,3,2,4,4,4,3,3,4,5,5,4,2,2,2,4.07692307692308,5,4,5,4,3,4,4,5,3,4,4,5,4,4,36.1,36.5,1,36.3,1,7,7,3,.846611528908437,.360181979125453,Tsinhua
1996,3,4,4,3,4,4,4,4,3,2,1,2,2,1,2,1,4.66666666666667,0,4.77777777777778,4.44444444444444,66,4.05555555555556,0,3.27272727272727,1,4,5,6,5,6,4,6,6,4,4,4,5,5,4,7,1,6,2,3,4,4,4,3,3,5,4,7,4,4,5,4,5,4,4,2,4,10:32:10,1.6,2,16,2,5,5,5,5,5,4,5,4,5,3,3,4,4,3,2,4,23,1,4,5,5,5,5,5,3,4,3,2,2,5,4,5,3,5,4,5,5,5,4,2,4,3,4,5,5,1,3,1,3,3,2,2,3,3,2,2,2,1,0,4,4,5,0,8,8,7,5,1,1,2,1,1,1,1,1,2,1,2,NA,NA,NA,NA,NA, , , , , ,1,2,4,1,1,1,2,9,2,2,4,5,5,3,1,2,4,5,3,1,1,1,3,5,3,1,2,5,5,2,5,5,1,1,1,1,3,5,5,3,3,3,3,3,4,3,2,4,4,5,3,5,2,2,5,1,1,1,2,4,3,3,2,3,2,4,4,4,5,5,4,4,3,4,5,3,5,5,5,2,3,36.7,37.2,1,36.95,1,13,7,3,1.04354154781713,1.26386436402803,Tsinhua
1994,2,2,2,2,2,2,2,2,2,2,2,2,2,1,4,2,3.16666666666667,1,4.66666666666667,3.77777777777778,60,3.44444444444444,0,2,1,3,3,3,3,5,3,3,3,3,3,3,3,3,2,3,3,5,3,3,3,5,3,3,5,5,3,3,2,3,5,2,3,3,5,3,3,10:33:09,2.2,2,5,2,5,5,4,5,5,4,4,5,5,3,2,4,3,2,4,3,28,4.33333333333333,3.72727272727273,5,5,4,4,5,4,4,2,2,2,4,4,5,2,4,4,2,5,4,4,2,5,2,4,4,4,1,2,2,4,4,2,2,4,3.07692307692308,1,2,2,1,0,4,4,5,0,4,3,7,6,1,1,2,6,2,4,3,3,2,1,1,毕业论文交流小组, , , , ,2, , , , ,4,2,4,4,5,3,5,9,3,2,4,4,4,4,2,4,4,4,4,2,2,2,4,2,4,2,2,4,4,4,4,5,2,2,2,2,2,4,4,2,4,4,2,4,4,4,2,2,4,2,4,4,2,2,4,2,2,2,4,4,2,4,4,4,2,4,2.61538461538462,2,4,3,2,2,2,3,2,3,3,2,5,3,3,36.5,36.7,1,36.6,1,13,7,3,-.728828622361138,.435488844534002,Tsinhua
1993,1,1,2,2,1,2,3,1,3,1,1,2,2,2,4,3,3.44444444444444,0,4,3,82,2.83333333333333,0,1.63636363636364,1,6,4,2,2,4,2,4,4,5,1,4,4,4,5,1,2,6,2,2,2,2,3,2,2,4,2,2,3,4,2,6,4,2,4,1,4,10:35:07,2.6,2,2,2,5,4,4,4,4,3,3,4,5,3,3,4,2,3,2,4, ,5.66666666666667,1.45454545454545,1,1,3,1,1,1,1,1,1,4,1,3,5,3,4,3,1,1,2,5,2,5,3,3,4,3,1,1,1,4,2,3,4,1,2.69230769230769,2,2,2,1,0,4,1,5,0,8,1,4,4,1,1,2,3,1,1,1,1,2,1,2,NA,NA,NA,NA,NA,0,0,0,0,0,3,1,4,7,6,4,4,9,0,1,4,5,5,4,5,3,4,3,4,1,4,4,4,3,3,4,4,4,3,3,4,4,3,2,2,1,2,4,4,2,3,4,2,2,2,2,3,2,4,2,4,4,4,1,3,2,4,4,4,2,2,2,3,4,2,4,2.53846153846154,3,2,2,2,4,2,3,3,2,4,1,3,4,1,36.8,36.9,1,36.85,1,17,7,3,-.400611924179976,-.392886674960027,Tsinhua
1995,3,3,4,3,4,4,4,3,4,2,4,3,4,2,4,2,4.33333333333333,0,4,3.55555555555556,21,2.77777777777778,0,3.45454545454545,1,5,5,2,5,6,6,6,2,5,5,4,5,2,5,2,5,6,2,2,2,5,1,5,1,2,2,2,3,2,5,3,2,5,3,2,3,10:35:52,3,2,2,2,4,4,4,4,4,4,4,4,4,3,2,2,2,2,3,4,15,5.5,3.45454545454545,4,4,4,4,2,4,2,2,4,4,4,4,4,2,4,4,4,2,4,4,1,2,2,4,4,2,1,3,2,2,4,2,4,4,2.76923076923077,2,2,2,1,0,4,2,5,0,3,1,5,4,1,1,2,6,1,1,1,3,2,1,2,NA,NA,NA,NA,NA, , , , , ,5,2,4,5,6,6,6,9,1,2,4,4,4,4,3,2,2,4,2,2,3,3,4,4,4,4,4,3,4,2,4,4,2,2,2,2,4,4,2,2,2,2,2,4,4,4,4,4,4,3,4,4,3,3,4,4,4,4,4,4,4,4,4,4,2,4,2.76923076923077,4,2,3,3,4,2,2,3,2,3,2,4,3,3,36.7,36.8,1,36.75,1,11,7,3,.64968150999974,-.468193540368576,Tsinhua
1994,3,3,3,3,3,3,3,3,3,3,3,3,3,3,3,3,4.27777777777778,0,3.66666666666667,2.33333333333333,76,2.94444444444444,0,3,1,7,3,5,5,4,4,4,5,4,4,4,3,4,2,5,7,5,2,5,3,3,3,1,2,3,2,3,4,3,4,2,2,4,3,3,3,10:36:52,3,2,2,2,3,4,4,3,4,4,4,3,4,5,6,4,2,2,1,4,20,5.66666666666667,2.09090909090909,2,3,2,2,2,2,2,2,2,2,2,3,2,2,2,2,2,2,2,4,2,4,2,4,4,4,2,3,3,2,2,2,3,3,2.92307692307692,1,2,2,1,0,4,4,5,0,7,4,5,4,1,1,2,7,1,1,1,3,2,1,2, , , , , , , , , , ,5,2,4,6,6,5,5,9,2,2,4,4,4,3,3,3,3,3,2,2,3,3,3,3,3,3,3,3,3,3,3,3,3,3,3,2,2,3,3,3,3,3,3,3,3,4,3,2,4,4,3,4,3,2,3,4,3,2,3,3,3,3,3,3,3,2,2.92307692307692,2,2,2,3,4,4,3,2,4,4,2,3,4,2,36.2,36.1,1,36.15,1,13,7,3,.584038170363508,-.242272944142931,Tsinhua
1996,5,4,2,3,2,3,5,4,3,2,2,2,4,2,3,2,3.72222222222222,0,3.11111111111111,3.88888888888889,72,3.5,0,3.18181818181818,1,4,6,3,5,7,2,6,4,3,4,2,3,3,4,2,2,5,2,2,2,6,3,2,6,7,5,4,2,2,3,2,6,2,2,4,3,10:38:28,2.6,2,0,2,3,2,4,3,3,3,4,3,3,3,4,3,2,4,2,4,16,5.5,2.36363636363636,2,2,2,3,2,3,2,3,2,3,2,4,4,2,4,5,4,5,2,5,2,4,4,4,5,2,1,4,2,4,3,3,4,4,3.38461538461538,2,2,2,1,0,4,1,5,0,5,3,5,2,1,1,1,5,1,1,1,5,2,1,1,网络公会, , , , , , , , , ,3,4,3,5,7,6,5,9,3,4,3,4,3,1,2,2,2,5,4,2,2,2,4,4,4,3,4,4,3,2,4,3,2,3,1,2,4,5,4,4,3,3,4,2,4,4,5,3,3,3,4,4,3,4,5,4,3,2,4,2,4,3,4,4,2,3,3,3,2,3,3,4,3,4,3,3,4,2,4,3,2,37.1,36.9,1,37,1,14,7,3,-.072395225998815,.510795709942549,Tsinhua
1994,3,1,4,2,4,2,4,2,2,2,3,2,3,2,2,2,3.27777777777778,3,2.55555555555556,3.88888888888889,74,4.05555555555556,0,2.63636363636364,1,4,3,3,3,3,4,4,5,3,2,3,3,3,2,3,4,6,1,5,1,4,3,2,4,5,2,5,3,5,6,3,5,5,6,3,6,10:38:36,2.2,2,3,2,1,3,3,2,2,3,3,3,3,3,3,4,3,3,1,1,14,3.16666666666667,3.36363636363636,4,4,4,5,2,4,2,2,3,3,4,4,5,2,4,3,4,5,4,4,2,5,4,3,3,2,3,3,3,3,2,3,3,1,2.92307692307692,2,2,2,1,0,4,1,5,0,4,1,6,1,1,1,2,2,2,1,3,1,2,1,2,老师,同学, , , ,1,2, , , ,4,4,2,3,3,3,4,9,0,4,2,3,4,2,2,2,2,3,2,2,2,2,2,4,4,3,3,4,2,4,4,3,2,3,2,4,2,2,4,2,2,4,2,2,4,3,3,2,4,2,4,4,2,2,4,4,2,2,3,3,2,4,3,4,1,4,2.92307692307692,3,3,3,3,2,3,3,3,3,3,3,4,3,3,36.95,37,3,36.975,1,16,7,3,-.597541943088674,1.26386436402803,Tsinhua
1995,3,3,3,4,4,4,3,4,3,3,2,1,4,2,3,4,3.61111111111111,0,3.11111111111111,3.55555555555556,74,3.33333333333333,0,3.27272727272727,1,3,3,4,5,5,3,4,5,4,2,3,3,4,3,3,3,5,3,4,4,4,3,3,3,2,4,2,3,3,5,3,3,3,4,3,4,10:40:15,2.8,2,2,2,4,4,4,3,2,2,4,2,3,3,2,7,3,3,1,1, ,5,3.09090909090909,4,4,4,4,3,2,2,2,2,3,4,4,5,2,5,2,2,4,3,5,2,5,3,4,5,4,1,3,2,3,3,4,1,4,3.23076923076923,1,2,2,1,0,4,1,5,0,1,0,3,1,1,1,2,8,3,1,8,8,2,1,2,NA,NA,NA,NA,NA,0,0,0,0,0,6,4,5,5,4,4,4,8,2,4,5,5,5,2,2,4,3,4,3,2,2,2,2,3,3,2,3,4,3,2,3,3,2,3,2,1,4,4,3,3,3,4,2,2,2,4,3,1,4,4,4,3,2,3,4,4,2,3,3,3,2,4,3,4,4,2,3.07692307692308,3,3,3,2,3,3,4,4,4,4,2,3,2,3,36.8,36.8,1,36.8,1,16,7,3,-.20368190527128,.284875113716905,Tsinhua
1996,2,3,2,3,2,2,3,4,2,2,2,3,4,2,4,3,4.66666666666667,0,4.55555555555556,3.33333333333333,87,3,0,2.45454545454545,1,5,5,5,6,6,5,6,5,5,3,5,3,5,3,6,2,6,3,6,3,2,2,2,4,3,3,5,2,3,2,2,3,2,3,2,5,10:40:25,3.2,2,.5,2,5,5,4,5,5,4,4,4,5,3,4,3,2,2,2,4,19,5.66666666666667,2.90909090909091,4,4,4,4,3,2,2,2,2,3,2,3,4,2,4,3,4,2,4,4,2,2,2,3,4,3,2,2,2,3,2,2,4,3,2.61538461538462,2,2,2,1,0,4,4,5,0,4,3,6,3,1,1,2,8,1,1,1,1,2,1,1,文学社,天文社, , , ,1,2, , , ,6,3,4,5,6,6,6,9,2,3,4,5,3,2,4,4,2,5,3,2,2,2,4,4,3,3,4,4,4,2,3,3,2,2,2,1,5,4,2,5,2,3,2,2,2,4,4,2,3,4,4,3,2,4,3,3,3,2,3,3,2,4,3,3,2,4,3.15384615384615,3,2,3,4,4,3,4,2,4,5,2,4,3,2,37,36.6,1,36.8,1,17,7,3,1.04354154781713,-.166966078734383,Tsinhua
1994,4,1,4,4,2,3,4,4,3,1,3,2,1,2,2,2,4.05555555555556,2,2.88888888888889,2.88888888888889,65,4.05555555555556,10,3,1,3,5,5,2,7,3,1,6,2,6,6,3,3,4,2,6,4,5,4,2,5,4,5,4,3,1,4,5,4,2,6,6,6,3,5,4,10:40:56,1.8,2,5,2,3,2,3,4,3,2,4,1,4,2,1,4,6,5,3,3,29,4.33333333333333,2.81818181818182,1,2,2,5,3,1,3,4,3,5,2,3,2,2,2,4,5,3,1,4,1,4,4,4,2,3,4,2,4,2,2,2,4,3,3.07692307692308,1,1,1,1,0,4,4,5,0,2,3,2,5,1,3,2,5,1,1,3,5,1,4,1, , , , , , , , , , ,7,1,5,3,5,4,1,9,4,1,5,5,4,2,2,3,3,4,2,1,3,3,3,4,2,2,4,2,4,2,4,2,1,5,4,1,3,3,3,3,3,3,2,3,4,3,4,2,1,4,2,2,3,2,4,3,2,3,2,3,3,2,4,5,3,2,3.23076923076923,2,4,4,2,3,4,4,4,4,1,3,4,4,3,36.8,36.7,1,36.75,1,16,7,3,.321464811818579,1.26386436402803,Tsinhua
1995,4,4,1,4,2,2,4,3,1,4,5,2,3,2,3,1,2.77777777777778,0,3.55555555555556,2.44444444444444,78,2.55555555555556,0,3.09090909090909,1,5,5,2,3,4,5,2,2,5,2,3,4,1,1,1,2,1,2,2,2,4,2,1,1,1,2,2,3,5,2,2,2,5,3,2,5,10:42:30,2.2,2,0,2,3,3,4,2,4,4,4,3,5,4,4,4,2,2,1,1,15,3.83333333333333,2.09090909090909,5,3,4,3,1,1,1,1,1,1,2,4,2,1,4,1,2,3,4,1,2,3,3,4,5,3,1,2,3,3,2,1,4,4,2.92307692307692,2,2,1,2,1,1,2,4,4,6,1,3,1,1,1,1,1,1,1,1,1,2,1,2, , , , , , , , , , ,4,1,5,2,5,6,6,11,1,1,5,4,4,2,1,2,4,5,2,1,1,1,4,4,3,1,1,4,3,2,4,4,1,1,1,1,2,4,2,2,2,3,2,4,2,1,1,2,3,4,2,3,2,2,2,4,4,4,3,2,2,3,3,4,3,2,1.84615384615385,1,2,1,2,3,1,2,1,2,2,1,2,4,2,36.5,36.3,1,36.4,1,17,7,3,-1.18833199981476,-.769421002002768,Tsinhua
1995,3,3,2,3,4,3,4,2,2,4,4,3,4,3,4,2,3.22222222222222,0,4,2.88888888888889,88,2.22222222222222,0,3.09090909090909,2,6,2,4,6,6,6,2,3,2,1,6,2,2,2,2,2,2,2,2,2,2,2,2,2,2,1,2,2,4,2,2,2,1,2,4,4,10:42:36,3.2,2,0,2,4,4,4,4,4,4,4,4,4,5,6,7,6,6,6,6,19,3.5,3.09090909090909,4,4,4,4,2,2,3,2,2,3,4,2,4,2,4,2,2,2,4,4,1,5,1,5,5,5,1,1,5,1,5,1,1,1,2.84615384615385,2,2,1,1,0,4,4,4,1,4,4,5,4,1,1,2,4,1,1,1,1,2,1,2, , , , , , , , , , ,2,2,2,4,4,4,4,10,1,2,2,4,4,2,2,4,4,4,4,2,4,4,2,3,4,4,4,4,3,3,4,4,2,2,2,2,4,4,2,3,4,4,2,3,3,3,3,3,4,4,3,4,2,2,2,4,4,4,4,2,2,4,4,3,2,4,3,3,3,3,3,3,3,3,3,3,3,2,4,4,3,36.5,36.3,1,36.4,1,15,7,3,-.663185282724906,-1.22126219445406,Tsinhua
1996,2,2,2,2,3,4,3,4,3,2,3,2,2,1,4,2,3.94444444444444,3,5,3.77777777777778,71,2.55555555555556,0,2.72727272727273,1,5,2,2,5,6,3,5,5,6,2,5,2,2,2,6,5,6,2,3,1,2,1,2,2,2,3,2,2,1,5,2,3,6,3,2,4,10:44:14,2.2,2,1,2,5,5,5,5,5,5,5,5,5,2,2,4,2,2,1,2,23,4.66666666666667,3.18181818181818,4,4,4,4,4,2,2,2,2,3,4,4,4,3,4,3,4,4,4,4,2,4,4,4,5,5,1,4,2,2,4,2,2,4,3.30769230769231,2,2,2,1,0,4,4,5,0,8,3,4,2,1,1,2,3,1,1,5,5,2,1,2, , , , , , , , , , ,5,2,4,5,4,4,4,9,2,2,4,4,4,3,3,4,4,4,2,2,2,3,2,4,3,2,3,4,5,2,4,5,2,1,2,1,2,4,4,2,2,4,2,3,3,2,2,2,4,4,4,4,3,2,4,2,2,2,4,2,4,4,4,3,2,2,3.07692307692308,3,2,2,4,4,3,3,2,4,4,4,3,3,2,36.4,36.4,1,36.4,1,16,7,3,.190178132546114,-.769421002002768,Tsinhua
1991,4,3,2,3,3,4,3,2,2,2,3,3,2,1,2,2,4.38888888888889,0,3.33333333333333,3.44444444444444,22,2.38888888888889,0,2.81818181818182,1,6,4,4,6,7,3,4,3,4,4,4,3,3,4,4,7,6,3,6,2,1,7,1,1,1,3,3,2,2,2,2,1,2,1,3,3,10:45:28,2,2,0,2,3,4,4,2,4,2,4,3,4,4,5,6,6,5,2,5,17,5,2.36363636363636,3,2,3,3,2,1,3,2,2,2,3,4,4,3,4,3,2,4,4,3,1,2,2,1,3,3,1,2,2,1,3,2,1,3,2,2,2,2,1,0,4,4,5,0,3,3,4,2,1,1,1,2,2,1,3,1,2,1,2, , , , , , , , , , ,6,2,4,4,6,5,6,9,1,2,4,4,4,4,2,3,3,5,2,2,4,4,4,4,4,4,4,4,2,4,3,2,3,3,3,2,2,4,4,2,2,2,4,4,3,4,4,3,4,3,3,3,4,2,4,4,4,4,3,2,3,5,3,3,4,2,3.23076923076923,3,4,4,4,4,2,3,3,3,3,3,3,2,4,36.5,37,1,36.75,1,8,7,3,.715324849635973,-.995341598228413,Tsinhua
1994,4,4,2,3,2,3,3,3,4,3,5,4,3,4,3,3,3.88888888888889,0,3.88888888888889,3.22222222222222,74,4.16666666666667,0,3.27272727272727,1,5,5,4,4,3,5,3,4,3,2,3,5,3,3,4,6,3,5,6,2,6,4,5,7,5,2,5,3,4,3,2,5,4,5,5,2,10:46:01,3.4,2,4,2,4,4,5,4,4,3,3,3,5,2,2,4,3,6,4,6,14,6,3.54545454545455,3,3,5,5,3,4,5,3,2,2,4,3,3,4,3,2,4,2,4,4,2,4,4,2,3,3,3,3,2,3,4,3,3,5,3.23076923076923,1,2,2,1,0,4,2,5,0,8,1,6,3,1,1,2,8,1,1,1,1,1,3,2, , , , , , , , , , ,5,5,3,7,5,5,5,9,1,5,3,4,4,3,4,5,1,3,2,2,2,2,4,4,4,2,2,4,2,2,2,3,3,4,2,2,3,4,2,3,2,4,4,3,4,3,4,4,3,2,4,2,3,4,4,3,3,2,4,3,3,2,4,2,3,4,4,5,4,5,2,3,3,4,5,4,5,3,2,4,5,36.5,36.3,1,36.4,1,16,7,3,.124534792909882,1.41447809484513,Tsinhua
1993,4,4,4,4,4,4,4,2,2,4,2,4,4,2,3,2,3.83333333333333,0,3.88888888888889,3.44444444444444,69,3.72222222222222,0,3.45454545454545,1,5,3,5,5,6,5,4,5,5,3,3,2,2,2,2,5,5,2,3,2,6,4,3,3,3,5,2,2,2,5,2,5,3,6,6,5,10:46:10,3,2,0,2,4,3,4,4,4,4,4,4,4,4,4,5,4,4,2,2,16,4,2.90909090909091,4,2,2,4,4,2,4,2,2,4,2,2,4,2,4,4,3,4,4,4,2,3,2,4,4,2,2,2,2,4,3,2,2,3,2.69230769230769,2,2,2,1,0,4,4,5,0,5,3,5,3,1,1,2,3,1,1,1,1,2,1,2, , , , , , , , , , ,3,2,4,5,4,3,4,9,1,2,4,3,4,2,2,2,2,2,2,2,2,2,4,4,2,2,4,4,3,2,4,3,2,3,2,3,4,4,2,2,4,3,2,4,4,2,2,2,4,4,3,4,3,4,4,4,2,2,2,2,3,4,2,3,2,4,3.46153846153846,3,4,3,3,4,3,4,3,4,4,4,2,3,3,36.3,36.5,1,36.4,1,8,7,3,.0588914532736497,.812023171576742,Tsinhua
1996,2,2,3,2,4,3,4,3,4,2,2,2,2,2,2,2,3.22222222222222,0,4.66666666666667,4,74,2.22222222222222,0,2.81818181818182,1,5,1,1,2,6,4,4,2,2,3,3,4,2,2,7,4,5,1,2,1,2,2,3,2,6,2,2,2,2,3,2,2,2,1,1,3,10:46:21,2,2,0,2,5,5,3,5,5,4,5,5,5,5,5,4,6,3,3,3,23,6,3.81818181818182,4,5,4,4,5,3,3,4,3,3,4,4,4,4,4,4,3,4,4,5,2,5,4,3,4,4,1,3,3,3,3,2,3,2,3.07692307692308,2,2,2,1,0,4,4,5,0,8,2,6,3,1,1,2,8,3,1,8,2,2,1,1,学生会, , , , , , , , , ,6,3,3,6,6,6,6,9,2,3,3,4,4,3,2,2,2,4,3,2,3,3,4,4,4,3,4,4,5,4,4,5,2,2,2,2,3,4,3,2,2,4,4,4,4,2,1,2,4,2,2,4,3,2,4,4,4,3,4,5,4,5,3,4,2,4,2.92307692307692,4,3,4,3,2,3,2,3,3,3,3,3,2,3,36.8,36.7,1,36.75,1,16,7,3,-.663185282724906,-1.22126219445406,Tsinhua
1995,3,2,3,2,4,3,3,2,3,2,3,2,2,3,2,1,4.83333333333333,0,3.33333333333333,4,78,3.38888888888889,0,2.72727272727273,1,3,6,6,3,6,4,6,6,4,5,4,6,4,6,5,4,5,4,6,2,4,4,3,4,4,4,4,2,2,2,2,4,4,4,2,4,10:49:51,2,2,0,2,3,3,4,3,4,4,1,3,5,3,3,4,3,2,2,3,20,5,3.72727272727273,4,4,4,3,3,4,4,4,4,3,4,5,4,3,4,4,4,4,4,4,2,2,3,3,3,2,2,2,2,4,4,3,5,4,3,1,2,2,1,0,4,4,5,0,4,4,5,3,1,1,2,8,1,1,1,4,2,1,1,学生会,NA,NA,NA,NA, , , , , ,6,1,5,4,4,5,6,9,2,1,5,4,4,4,1,1,3,5,4,1,1,1,3,5,3,2,2,4,3,3,4,4,4,2,1,1,3,5,5,1,5,5,4,4,4,1,1,1,3,4,4,4,4,1,4,3,2,2,5,5,5,3,5,3,1,1,2.92307692307692,3,3,3,3,2,2,3,3,3,4,3,4,3,3,36.7,36.36,1,36.53,1,17,7,3,1.24047156672583,.360181979125453,Tsinhua
1995,2,3,3,2,2,4,4,2,4,3,3,3,4,2,4,1,4.44444444444444,2,3.55555555555556,3.33333333333333,74,3.11111111111111,0,2.90909090909091,1,2,5,5,6,6,5,5,5,2,2,2,5,5,2,6,6,6,5,4,2,5,3,2,2,6,2,5,2,2,2,3,5,3,3,3,2,10:50:09,2.8,2,0,2,4,4,3,4,4,3,3,3,4,5,2,1,3,4,1,6,22,3.16666666666667,3.09090909090909,3,4,4,5,4,1,2,2,1,4,4,4,4,2,4,3,1,4,4,4,2,3,2,4,5,2,2,2,2,2,3,2,2,4,2.69230769230769,2,2,2,1,0,4,4,5,0,5,1,8,3,1,1,2,3,3,2,2,1,2,1,1,14教育班委会, , , , ,6, , , , ,2,2,2,4,2,3,2,9,1,2,2,4,4,3,2,3,4,4,2,4,4,2,3,3,4,4,4,4,4,3,4,4,3,1,2,3,3,4,3,2,2,4,2,3,4,4,3,2,4,3,4,2,4,3,4,4,2,2,4,2,3,4,4,4,2,4,2.84615384615385,3,3,3,3,2,2,3,3,2,4,3,4,3,3,36.5,36.5,1,36.5,1,16,7,3,.780968189272205,-.0163523479172872,Tsinhua
1994,2,2,4,2,2,3,2,2,3,2,2,2,4,2,2,2,4.5, ,4.66666666666667,2.55555555555556,62,3.66666666666667,0,2.36363636363636,1,5,5,5,5,4,4,4,6,5,2,6,4,6,2,6,4,6,2,3,2,6,5,1,6,5,2,5,2,2,2,2,6,3,6,4,4,10:50:35,2.4,2, ,2,5,4,5,3,5,5,5,5,5,4,4,6,4,4,4,4,21,4.33333333333333,2.72727272727273,4,2,4,2,4,2,2,2,2,2,4,4,2,2,2,2,1,2,4,4,2,1,2,4,4,5,1,2,2,2,3,1,2,3,2.46153846153846,2,2,2,1,0,4,2,5,0,8,1,6,5,1,1,2,3,2,1,1,8,2,1,2,NA,NA,NA,NA,NA, , , , , ,3,2,2,5,4,4,4,9,2,2,2,5,5,5,2,2,5,3,2,2,2,2,4,4,4,2,4,4,3,3,4,2,2,2,2,2,1,2,4,2,4,4,4,3,4,3,2,2,3,4,4,4,3,2,4,2,2,2,5,2,3,5,4,4,2,2,3.15384615384615,3,3,3,4,4,3,3,2,4,4,2,5,3,3,36.6,36.7,1,36.65,1,15,7,3,.846611528908437,.736716306168193,Tsinhua
1994,2,4,2,4,3,4,4,2,4,4,3,3,4,2,2,2,4.88888888888889,1,3,3,71,3.38888888888889,0,3.27272727272727,1,5,5,5,6,6,5,4,3,5,5,5,5,5,4,5,6,5,4,4,2,5,3,4,3,5,3,3,2,2,5,2,5,3,4,2,4,10:50:40,2.6,2,1,2,2,2,2,4,3,3,4,3,4,4,5,4,2,3,3,3,25,5.33333333333333,3,4,4,3,4,2,2,2,2,2,4,4,3,4,2,4,3,2,3,2,4,2,1,3,3,4,4,2,2,3,2,3,2,2,2,2.53846153846154,2,2,2,1,0,4,2,5,0,5,1,8,8,1,1,2,5,2,1,1,3,2,1,2,跆拳道協會,NA,NA,NA,NA,6, , , , ,5,3,3,6,7,5,6,9,2,3,3,4,4,3,2,2,2,4,2,2,4,2,4,4,4,3,4,4,3,2,4,3,2,3,2,2,4,4,3,2,4,3,3,4,4,2,3,3,4,4,2,4,4,3,4,3,4,3,2,2,3,4,2,4,4,4,3.23076923076923,3,3,4,3,3,3,3,4,3,3,4,4,3,3,36.7,36.8,3,36.75,1,16,7,3,1.30611490636206,.360181979125453,Tsinhua
1996,3,4,3,4,4,3,4,3,3,2,3,2,3,2,4,2,4.77777777777778,0,4.44444444444444,3.11111111111111,87,3.44444444444444,0,3.27272727272727,1,5,4,3,4,7,5,5,5,5,4,6,3,4,4,7,5,6,4,6,1,5,4,4,3,5,3,5,2,4,5,2,4,2,2,1,4,10:50:40,2.6,2,4,2,3,5,4,3,5,5,5,5,5,5,5,6,2,3,2,2,15,4.33333333333333,3.54545454545455,5,4,4,5,4,2,4,2,3,3,3,3,4,2,4,3,3,2,3,4,2,3,3,4,3,3,2,2,2,4,2,3,4,2,2.84615384615385,2,2,2,1,0,4,2,5,0,5,1,4,4,1,1,2,7,1,1,2,1,2,1,1,湖北大学市场营销协会,NA,NA,NA,NA,1, , , , ,6,4,5,4,4,5,5,9,1,4,5,5,4,2,4,3,3,5,4,2,2,3,4,4,3,3,3,5,5,3,4,3,2,1,2,1,4,4,2,5,4,3,4,4,4,2,3,2,4,3,4,4,4,3,5,3,5,5,3,4,3,5,3,4,2,4,2.84615384615385,4,3,4,2,3,2,4,2,2,4,3,4,2,2,37.1,36.8,1,36.95,1,17,7,3,1.1748282270896,.435488844534002,Tsinhua
1995,2,2,2,2,2,2,2,2,2,2,2,3,3,2,2,2,4,0,4,3.22222222222222,86,3.33333333333333,0,2,1,5,5,1,4,7,5,6,7,2,5,1,4,3,2,6,1,7,1,2,4,4,3,2,2,5,4,5,4,5,4,2,5,3,1,1,4,10:52:38,2.4,2,0,2,4,4,4,4,4,4,4,4,4,5,6,7,1,5,1,6,13,5.33333333333333,2.36363636363636,4,2,2,4,2,2,2,2,2,2,2,2,4,4,3,2,2,4,4,4,2,4,3,2,4,4,1,1,1,3,2,3,4,1,2.53846153846154,2,2,2,1,0,4,2,5,0,8,2,5,3,1,1,2,8,1,1,1,1,2,1,2, , , , , , , , , , ,7,1,3,5,5,5,5,9,2,1,3,3,4,4,2,2,4,3,2,1,2,2,4,4,3,4,4,4,4,2,2,2,1,1,2,2,1,2,4,2,4,4,3,2,4,3,3,3,4,3,4,4,2,2,4,4,2,2,2,3,4,3,3,5,2,2,3,3,3,3,3,3,3,3,3,3,3,3,4,3,3,35.3,36.1,1,35.7,1,18,7,3,.255821472182346,.284875113716905,Tsinhua
1993,2,2,2,2,2,3,2,2,3,2,2,2,2,1,4,2,3.77777777777778,0,3.22222222222222,2.55555555555556,71,3.05555555555556,0,2.18181818181818,1,4,3,3,4,5,4,2,3,5,4,4,4,6,3,4,2,6,2,6,2,5,2,2,3,5,3,2,3,2,3,3,3,2,3,3,3,10:54:08,2.2,2,0,2,4,4,4,2,3,4,4,2,2,5,6,4,6,6,6,6,20,5.33333333333333,2.81818181818182,4,4,3,4,3,2,2,2,2,2,3,2,4,2,3,2,2,2,2,4,1,3,2,3,4,5,1,3,1,2,3,3,4,2,2.76923076923077,1,2,2,1,0,4,1,5,0,8,1,8,5,1,1,2,3,1,1,1,8,2,1,2,NA,NA,NA,NA,NA, , , , , ,4,1,4,6,5,5,6,9,2,1,4,2,5,5,3,2,4,4,2,1,2,2,4,4,4,3,3,4,3,4,4,4,2,2,2,2,1,3,4,2,2,4,3,5,5,4,4,3,4,4,4,4,4,2,4,2,3,2,4,2,3,2,3,4,3,3,2.92307692307692,3,3,3,2,3,2,2,4,4,3,4,4,2,3,36.5,36.7,1,36.6,1,16,7,3,-.00675188636258293,-.0916592133258356,Tsinhua
1994,4,4,2,2,3,4,4,4,4,2,4,2,4,2,3,2,3.94444444444444,0,4,3.33333333333333,66,3.61111111111111,0,3.36363636363636,1,5,4,4,4,3,5,5,5,2,4,3,4,5,4,3,5,3,3,4,3,4,3,4,5,4,2,4,3,3,4,3,5,3,4,5,2,10:54:21,2.6,2,0,2,4,4,4,4,4,4,4,4,4,3,4,4,3,2,2,3,27,4.83333333333333,3.09090909090909,4,4,4,4,3,2,2,3,2,2,4,3,4,2,4,4,3,2,4,4,2,3,3,2,4,4,2,4,2,3,3,2,2,3,2.84615384615385,2,2,2,1,0,4,4,5,0,6,3,4,2,1,1,2,8,3,8,3,1,2,4,2,NA,NA,NA,NA,NA, , , , , ,5,2,2,5,5,5,5,9,2,2,2,4,4,4,2,3,4,2,2,2,3,2,4,4,4,3,3,4,3,4,4,4,2,2,2,4,1,2,3,2,4,4,4,4,3,4,4,2,4,2,4,4,3,2,4,4,3,3,4,4,3,4,4,4,2,4,2.84615384615385,3,4,4,2,2,2,3,3,2,3,3,4,3,3,36.3,36.4,1,36.35,1,13,7,3,.190178132546114,.661409440759646,Tsinhua
1995,3,3,3,3,3,3,3,3,3,3,3,3,3,3,3,3,4,0,3.88888888888889,3.33333333333333,83,4,0,3,1,4,4,4,4,4,4,4,4,4,4,4,4,4,4,4,4,4,4,4,4,4,4,4,4,4,4,4,4,4,4,4,4,4,4,4,4,11:01:04,3,2,1,2,4,4,3,4,4,4,4,4,4,4,4,5,1,4,1,1,13,5.33333333333333,3.18181818181818,4,4,4,4,2,2,2,2,4,3,4,4,4,2,3,4,3,2,4,4,2,2,2,3,4,5,1,3,2,2,2,3,3,3,2.69230769230769,2,2,2,1,0,4,4,5,0,1,0,3,3,1,1,2,6,1,1,1,1,2,1,2,NA,NA,NA,NA,NA, , , , , ,3,3,3,6,6,5,5,8,2,3,3,4,4,2,2,2,2,4,3,2,2,2,4,4,2,2,2,3,3,3,3,3,3,3,3,1,3,3,3,3,4,4,3,2,3,3,2,2,3,4,3,3,2,4,4,4,2,2,2,3,2,2,2,3,2,3,3.30769230769231,2,2,2,4,4,4,5,2,4,5,1,2,5,3,37,37,1,37,1,17,7,3,.255821472182346,1.18855749861948,Tsinhua
1995,2,3,1,2,4,4,5,2,4,4,1,3,4,2,4,2,4.27777777777778,0,3.66666666666667,2.44444444444444,90,4.61111111111111,0,2.90909090909091,1,5,2,5,5,4,5,5,5,5,5,5,4,4,4,5,2,6,1,6,3,4,5,2,6,6,5,5,3,3,6,4,7,3,6,3,6,11:01:18,3,2,0,2,3,3,2,4,4,5,5,3,4,4,5,4,4,3,3,4,16,4.5,2.27272727272727,3,3,3,2,2,1,1,2,2,3,3,2,2,1,3,3,3,1,3,4,2,2,2,3,4,3,1,1,2,2,2,4,2,2,2.30769230769231,2,2,2,1,0,4,4,5,0,5,3,6,1,1,1,2,4,3,2,2,1,2,1,2,NA,NA,NA,NA,NA, , , , , ,3,1,5,5,5,5,4,9,1,1,5,4,4,3,1,3,4,5,2,2,2,2,4,4,2,1,3,4,2,3,4,2,1,4,1,1,2,4,3,4,2,4,3,4,4,1,3,2,4,4,3,4,1,3,5,4,1,1,1,3,1,4,1,3,2,2,3.38461538461538,4,3,5,4,4,4,4,2,4,3,2,4,2,3,36.9,36.8,1,36.85,1,13,7,3,.584038170363508,2.01693301811351,Tsinhua
1991,1,2,2,2,2,2,4,2,4,2,2,2,1,2,2,2,2.61111111111111,0,4,3,78,1.72222222222222,0,2.27272727272727,1,7,2,1,2,6,1,1,2,4,1,4,4,2,1,1,1,6,1,2,2,1,2,1,2,1,2,2,1,1,1,1,4,2,2,2,2,11:03:09,1.8,2,2,2,4,4,4,4,4,4,4,4,4,3,4,4,4,4,4,4,24,5.16666666666667,2.54545454545455,4,2,1,4,2,1,4,1,1,4,4,4,4,1,4,1,1,4,4,4,1,3,3,4,5,5,1,5,1,2,5,2,5,3,3.38461538461538,2,2,2,1,0,4,2,4,1,8,1,8,4,1,1,2,5,3,1,8,1,2,1,1,校排球队, , , , ,3, , , , ,3,1,4,6,4,4,6,10,2,1,4,4,4,2,2,2,4,4,2,1,2,2,2,4,4,1,1,4,4,2,4,3,1,1,1,1,3,4,4,2,1,5,1,4,4,4,2,2,3,4,4,4,1,3,4,4,4,1,3,1,4,4,4,3,4,2,2.76923076923077,2,4,4,2,3,2,4,2,2,4,4,4,2,1,36.5,36.5,1,36.5,1,17,7,3,-1.38526201872346,-1.89902398313099,Tsinhua
1989,4,2,4,4,4,4,4,4,4,4,2,2,2,4,4,2,4.11111111111111,0,3.66666666666667,2.88888888888889,22,3.66666666666667,0,3.63636363636364,1,3,3,5,5,5,3,4,4,5,5,3,4,4,3,5,3,6,4,4,3,3,4,4,2,3,5,4,3,4,4,4,3,5,3,5,3,11:03:59,2.8,2,0,2,3,4,4,3,4,4,4,3,4,4,4,4,2,3,2,3,48,4.66666666666667,3.54545454545455,4,4,3,4,3,4,3,4,3,3,4,2,2,2,2,3,3,4,4,4,2,3,4,2,3,2,2,1,3,2,4,3,4,3,2.76923076923077,1,2,2,1,0,2,2,5,0,3,3,5,5,2,8,1,2,3,1,3,3,2,1,2,教会,公司部门,校园团契,NA,NA,10,15,8, , ,4,2,2,5,5,5,6,9,3,2,2,2,4,3,2,2,3,2,4,4,2,2,4,4,2,2,2,4,4,4,4,3,2,2,3,4,2,3,4,2,2,2,4,4,3,2,4,3,2,4,2,3,2,4,4,4,2,2,3,2,4,2,4,4,4,2,2.92307692307692,3,3,2,3,3,3,4,2,4,3,3,3,3,2,37.2,37.2,1,37.2,1,8,7,3,.387108151454811,.736716306168193,Tsinhua
1993,5,3,4,2,2,3,4,4,4,3,1,3,2,1,4,1,4.66666666666667,0,3,4,78,2.94444444444444,0,3.18181818181818,1,6,5,2,5,5,5,5,2,5,6,4,2,6,5,4,5,6,6,4,2,6,2,2,2,5,3,2,3,2,1,2,4,2,4,2,5,11:04:29,2.2,2,0,2,2,4,2,3,4,3,4,2,3,4,3,4,2,2,2,3, ,4.5,3.54545454545455,4,5,5,4,3,3,3,2,4,2,4,3,4,4,4,3,4,5,4,5,1,5,3,2,4,5,1,2,2,4,4,1,4,3,3.07692307692308,1,2,1,1,0,4,4,4,1,6,2,4,4,1,4,1,4,1,1,5,3,2,3,2,NA,NA,NA,NA,NA,0,0,0,0,0,5,1,4,4,5,5,7,10,1,1,4,5,4,1,3,3,3,3,3,1,3,2,4,5,4,5,3,3,3,4,5,3,2,2,2,2,3,2,2,2,5,5,3,3,5,5,3,2,3,3,4,3,2,4,3,2,3,3,3,3,4,5,3,3,4,1,3,3,3,5,2,3,1,3,4,3,3,4,5,3,2,35.9,36.3,1,36.1,1,17,7,3,1.04354154781713,-.242272944142931,Tsinhua
1993,3,3,3,3,3,3,4,2,3,3,4,3,3,2,4,2,4.16666666666667,0,3.77777777777778,3,78,3.83333333333333,0,3.09090909090909,1,5,4,4,5,4,4,5,4,4,4,4,4,4,3,4,4,5,4,4,2,4,4,4,4,4,4,4,4,3,4,4,4,4,4,4,4,11:04:42,2.8,2,0,2,4,4,4,4,4,4,3,3,4,4,3,5,3,3,1,3, ,4.16666666666667,2.81818181818182,4,4,2,3,2,2,4,2,2,2,4,4,4,1,4,2,2,3,3,4,2,4,4,4,4,3,1,3,3,3,4,2,4,3,3.23076923076923,2,2,2,1,0,4,4,5,0,3,2,4,4,2,2,2,8,2,1,3,1,2,1,2,科研协会,大创团队,NA,NA,NA,4,6,0,0,0,3,3,3,5,4,4,4,10,2,3,3,4,4,3,3,3,3,3,4,2,3,3,3,3,4,3,3,4,3,3,3,3,3,3,3,2,2,4,4,2,2,3,3,3,3,4,4,2,3,3,3,3,3,3,3,3,3,3,3,3,3,3,3,3,3,3,2.46153846153846,2,2,3,2,2,2,3,2,3,3,2,4,3,3,35.9,36.5,1,36.2,1,17,7,3,.452751491091044,.962636902393838,Tsinhua
1995,2,2,2,3,4,2,2,2,2,4,2,2,3,2,2,2,4.55555555555556,0,3.77777777777778,4.22222222222222,66,2.83333333333333,0,2.45454545454545,1,6,6,6,6,7,6,6,6,6,6,2,2,2,2,2,4,5,2,6,2,2,2,2,2,5,2,2,2,2,3,2,6,1,2,4,4,11:05:10,2.2,2,4,2,4,4,4,4,4,3,3,4,4,5,5,6,5,6,6,4,31,6,3.36363636363636,3,2,5,4,3,1,4,4,2,4,5,5,5,2,5,5,5,5,2,4,1,4,5,4,2,2,1,1,2,4,3,1,2,1,2.46153846153846,2,2,2,1,0,4,4,5,0,3,3,6,4,1,1,2,8,1,1,8,1,2,1,2,班级,NA,NA,NA,NA,7, , , , ,6,2,2,6,6,6,6,9,2,2,2,4,4,4,2,2,4,4,4,1,3,2,4,4,4,4,2,4,4,2,4,4,2,3,2,2,1,4,4,2,5,3,2,4,4,2,2,2,4,3,4,4,2,2,4,4,2,4,2,4,2,2,2,3,1,2,2.92307692307692,2,3,2,3,4,4,2,2,4,4,2,4,4,2,36.6,36.9,1,36.75,1,13,7,3,.912254868544669,-.392886674960027,Tsinhua
1995,4,4,3,3,2,4,3,3,4,4,2,2,4,1,3,2,4.88888888888889,0,3.55555555555556,3.77777777777778,71,3,0,3.27272727272727,1,7,7,1,7,7,4,2,5,4,7,5,6,2,3,4,6,6,5,4,4,2,2,3,2,1,3,4,4,4,5,4,2,1,1,2,6,11:05:20,2.4,2,0,2,5,4,4,4,4,3,3,2,3,3,3,7,1,5,3,2, ,5.5,3.72727272727273,3,4,4,4,2,4,4,4,4,4,4,4,4,2,4,4,4,4,4,4,1,2,3,5,5,3,1,1,3,2,3,1,3,1,2.53846153846154,1,2,2,1,0,4,2,5,0,3,1,4,4,1,1,2,8,1,1,8,1,2,1,2,NA,NA,NA,NA,NA,0,0,0,0,0,3,3,5,6,6,6,4,9,1,3,5,4,5,4,1,3,4,5,2,2,3,4,3,4,3,4,4,5,4,2,4,3,3,2,2,1,4,4,3,2,2,3,4,2,4,1,4,4,3,3,4,3,2,2,4,4,4,4,2,4,4,4,4,4,2,4,3.15384615384615,3,3,4,3,4,1,4,3,2,4,3,3,4,3,36.4,36.5,1,36.45,1,12,7,3,1.30611490636206,-.166966078734383,Tsinhua
1997,3,3,2,4,3,2,4,3,4,3,2,2,3,2,3,2,2.33333333333333,0,3.88888888888889,2,78,4.38888888888889,0,3,1,2,2,2,2,3,3,2,2,4,2,2,3,2,3,2,2,2,2,5,4,4,5,3,3,2,4,3,5,6,6,5,3,6,5,5,5,11:06:12,2.4,2,0,2,4,4,4,3,4,4,4,4,4,3,2,4,2,2,2,2, ,4,2,2,2,2,2,2,2,2,2,2,2,2,2,2,2,2,2,2,2,2,2,2,3,3,4,4,3,2,2,4,3,4,4,4,4,3.38461538461538,2,2,2,1,0,4,4,5,0,5,1,5,5,1,1,1,8,3,1,1,1,2,1,2,NA,NA,NA,NA,NA,0,0,0,0,0,5,2,3,5,4,3,6,9,3,2,3,4,3,2,2,3,3,4,3,2,2,2,3,3,4,2,2,3,3,3,3,3,2,2,2,2,3,4,4,3,2,4,3,2,3,3,3,2,3,2,3,2,2,4,2,2,2,2,2,3,2,3,2,3,3,4,2.07692307692308,2,2,1,2,3,2,2,2,2,2,2,2,3,2,36.6,36.8,1,36.7,1,17,7,3,-1.71347871690462,1.71570555647932,Tsinhua
1994,2,3,2,4,2,3,3,3,2,2,2,2,3,2,3,2,3.61111111111111,0,4.11111111111111,2.44444444444444,78,3.27777777777778,0,2.54545454545455,1,2,2,3,6,4,4,3,4,4,4,4,4,4,5,2,2,5,3,5,3,4,3,5,3,3,3,2,4,3,4,2,3,2,3,3,4,11:06:19,2.4,2,0,2,4,4,4,3,5,5,5,4,3,4,4,4,2,2,2,3,35,4.66666666666667,2.36363636363636,3,2,3,2,3,2,3,2,2,2,2,3,3,2,3,1,2,2,3,3,1,3,4,4,3,5,1,2,3,3,4,2,4,4,3.23076923076923,2,2,2,1,0,2,2,5,0,8,8,6,6,1,1,2,8,3,1,8,1,2,1,1,历史文化学院学生会,民族文化与精神研究协会,NA,NA,NA,3,3, , , ,2,2,2,5,6,5,4,9,3,2,2,4,4,2,2,2,4,4,2,2,2,3,4,4,4,4,4,4,3,3,4,3,2,2,2,2,2,4,4,2,1,4,4,4,4,4,4,2,2,3,4,4,4,2,4,2,4,4,4,2,4,4,4,4,4,4,2.23076923076923,3,2,3,2,3,2,2,2,1,4,2,4,2,1,37.1,37.1,1,37.1,1,17,7,3,-.20368190527128,.209568248308357,Tsinhua
1996,2,2,2,2,2,2,2,2,4,2,3,4,4,2,2,2,4.11111111111111,0,3.66666666666667,3.33333333333333,74,3,0,2.27272727272727,1,6,6,6,5,6,2,7,2,6,2,5,2,5,2,6,2,2,2,2,6,2,2,4,2,2,2,2,6,6,6,2,2,2,2,2,2,11:06:39,2.8,2,6,2,4,2,4,4,4,4,4,3,4,2,2,3,2,2,3,1,24,6.33333333333333,2.72727272727273,4,2,4,4,2,2,2,2,2,2,4,4,4,2,4,2,2,4,4,4,1,4,2,3,3,3,1,2,1,2,3,2,2,3,2.38461538461538,1,2,3,1,0,4,2,4,1,2,2,2,2,1,1,2,3,3,2,2,2,2,1,1,心理卫生协会,青年志愿者协会,青年传媒中心,英语广播台,NA,1,2,4,1, ,4,2,4,7,7,6,7,10,1,2,4,5,5,2,2,2,4,4,4,1,4,2,4,5,3,4,2,4,3,4,2,2,2,2,2,2,4,4,2,4,4,4,2,2,2,3,2,2,2,2,4,4,2,3,4,2,2,2,2,4,2,2,2,2,1,3,2.46153846153846,2,2,1,3,3,2,4,2,4,3,2,4,2,2,36,36.6,1,36.3,1,16,7,3,.387108151454811,-.166966078734383,Tsinhua
1995,4,4,4,2,3,4,4,2,2,4,4,3,1,2,2,3,4.11111111111111,0,4,2.88888888888889,62,3.88888888888889,0,3.36363636363636,1,6,4,4,5,4,3,4,4,4,4,4,4,4,4,3,4,5,4,4,2,3,4,4,4,5,4,4,4,4,4,4,5,2,5,4,4,11:09:42,2.2,2,0,2,4,4,4,4,4,4,4,4,4,2,2,3,2,2,2,2,12,5.66666666666667,2.36363636363636,3,2,2,2,3,2,2,2,3,2,3,3,4,2,4,1,1,4,3,4,2,3,1,4,3,3,1,1,1,2,2,1,2,3,2.07692307692308,2,2,2,1,0,4,2,5,0,3,1,4,3,1,1,2,2,1,1,1,1,2,1,2,NA,NA,NA,NA,NA, , , , , ,4,2,4,6,6,6,6,9,0,2,4,4,4,4,3,3,4,4,3,2,2,2,3,3,4,3,4,4,4,3,4,4,2,2,3,1,2,4,4,1,4,4,3,4,4,3,3,2,3,2,4,3,4,2,4,4,4,3,2,3,4,4,3,4,2,4,3.23076923076923,4,4,3,2,3,3,3,3,3,3,4,4,3,4,36.3,36.6,1,36.45,1,15,7,3,.387108151454811,1.03794376780239,Tsinhua
1996,2,2,2,3,3,2,3,2,2,4,3,3,2,2,2,2,3.38888888888889,0,3.22222222222222,2.22222222222222,87,4.55555555555556,0,2.54545454545455,1,2,4,5,5,4,4,2,3,3,4,2,3,4,3,3,1,5,4,4,4,5,5,4,5,6,5,5,5,4,6,2,6,5,5,3,3,11:09:50,2.2,2,8,2,3,4,4,3,4,3,4,2,2,4,4,4,5,5,4,2,36,3.5,2.45454545454545,3,4,2,3,2,1,3,2,2,2,3,2,3,1,3,3,2,2,2,2,2,4,3,2,4,2,3,1,3,4,2,2,3,4,2.84615384615385,2,2,2,1,0,4,4,5,0,8,1,8,6,1,1,2,8,1,1,8,1,2,2,1,健康俱乐部,美术协会,NA,NA,NA,7,4, , , ,3,1,1,4,3,3,3,9,3,1,1,3,4,2,1,3,5,3,2,1,1,1,4,5,3,2,2,3,3,3,2,2,2,2,2,2,1,2,3,2,4,4,3,3,3,2,3,2,3,3,4,3,2,3,3,4,3,2,2,2,2,2,2,3,2,4,2.69230769230769,2,3,3,2,3,3,4,2,2,4,3,4,3,1,37.2,36.9,1,37.05,1,17,7,3,-.466255263816209,1.94162615270496,Tsinhua
1997,2,2,3,2,5,2,2,2,3,2,4,2,3,1,3,1,5.11111111111111,0,5,2.88888888888889,78,2.72222222222222,0,2.63636363636364,1,5,6,6,4,7,5,6,6,6,2,6,5,4,6,1,6,5,6,1,1,6,3,2,3,3,3,2,2,1,4,1,6,4,2,4,1,11:10:30,2,2,4,2,5,5,5,5,5,5,5,5,5,3,2,4,2,3,2,4,15,4.16666666666667,2.45454545454545,4,3,4,3,1,1,1,3,2,2,3,2,4,1,4,3,1,2,5,4,2,3,2,2,4,5,3,1,3,5,5,2,2,2,3,2,2,2,1,0,4,2,5,0,8,1,3,3,1,1,2,3,3,1,2,1,2,1,2,家教,NA,NA,NA,NA,2, , , , ,1,1,1,4,5,2,3,9,0,1,1,5,5,2,2,2,5,5,3,1,1,2,4,5,3,2,2,4,4,2,4,5,3,2,2,1,4,4,2,2,4,1,4,4,3,5,5,2,4,3,4,4,2,5,4,5,3,3,4,2,4,3,3,5,3,3,3,2,4,3,4,4,3,3,1,3,2,5,4,2,3,36.9,36.6,1,36.75,1,17,7,3,1.56868826490699,-.543500405777124,Tsinhua
1995,4,4,5,2,2,5,2,4,2,3,2,2,2,1,3,2,6.66666666666667,0,3.22222222222222,3.11111111111111,86,2.83333333333333,0,3.18181818181818,1,7,7,7,7,7,7,7,7,7,7,7,7,7,4,5,7,6,7,5,2,1,1,2,1,1,6,7,1,7,3,2,2,1,1,1,7,11:10:35,2,2,0,2,4,2,4,4,1,4,4,3,3,5,6,7,3,6,2,3,16,6.83333333333333,2.45454545454545,4,2,3,2,2,2,2,2,2,2,4,2,3,2,4,3,2,4,4,4,1,1,2,2,4,4,1,3,2,1,3,1,4,3,2.38461538461538,2,2,2,1,0,4,4,5,0,4,1,5,4,1,1,2,3,1,1,1,2,2,1,2, , , , , , , , , , ,6,3,4,7,7,7,7,9,1,3,4,1,1,3,4,2,2,4,2,1,4,4,4,3,2,4,4,3,2,3,4,2,2,4,4,2,2,4,4,4,2,4,4,4,2,4,2,1,4,2,4,3,4,4,4,2,4,4,4,4,4,4,3,3,2,2,3.15384615384615,4,2,5,3,3,2,3,4,2,3,4,4,4,2,36.6,36.6,1,36.6,1,16,7,3,3.4067017747215,-.392886674960027,Tsinhua
1997,4,4,4,4,4,4,4,3,3,4,2,2,4,2,2,2,3.05555555555556,0,4,2.55555555555556,87,4.33333333333333,0,3.63636363636364,1,4,2,2,2,3,3,4,6,4,2,1,2,4,3,4,2,4,3,6,3,4,4,4,5,5,3,4,6,4,6,2,5,4,4,5,4,11:12:19,2.4,2,0,2,4,4,4,4,4,4,4,4,4,2,2,2,2,3,4,4,17,5.83333333333333,2.63636363636364,3,3,3,3,3,2,2,2,2,3,3,2,3,2,3,3,2,2,3,3,2,2,2,3,3,4,2,2,1,3,2,4,4,3,2.69230769230769,2,2,2,1,0,4,4,5,0,6,4,3,3,1,1,2,8,3,1,1,1,2,1,1,FD动漫社, , , , , , , , , ,5,4,2,6,6,6,6,9,2,4,2,3,3,2,2,2,2,4,3,3,2,2,3,5,3,1,2,3,3,2,3,3,2,2,3,2,2,3,3,2,4,4,2,3,2,3,3,3,4,4,4,4,1,3,4,3,2,2,4,4,2,2,3,3,2,3,3,3,2,2,4,4,4,4,3,2,4,2,3,3,2,36.9,36.7,1,36.8,1,17,7,3,-.860115301633603,1.64039869107077,Tsinhua
1997,3,3,3,3,3,3,3,3,3,3,3,3,3,3,3,3,3.94444444444444,0,2,3.11111111111111,87,3.88888888888889,1,3,1,5,3,5,5,3,5,4,3,3,4,4,4,5,3,3,4,5,3,2,5,6,2,5,2,5,3,2,4,4,4,3,3,7,4,4,5,11:13:21,3,2,0,2,2,2,2,2,2,2,2,2,2,2,2,4,2,3,3,5,29,3.33333333333333,3,4,4,2,2,3,4,2,4,3,3,2,2,4,4,2,2,4,3,3,4,1,3,3,2,2,2,2,4,4,4,2,4,4,2,2.92307692307692,1,1,2,1,0,4,4,5,0,8,3,5,3,1,1,1,5,3,1,1,5,1,3,2,分团委, , , , ,7, , , , ,5,3,3,3,3,3,5,9,3,3,3,4,4,3,3,4,4,1,2,3,3,2,3,4,4,3,3,2,2,2,2,3,5,4,2,2,2,2,4,4,3,3,3,2,3,2,3,3,4,2,3,2,1,3,1,2,4,4,2,2,4,3,4,1,3,4,3.07692307692308,2,2,2,4,4,4,4,2,4,4,2,2,4,2,36.2,36.5,1,36.35,1,17,7,3,.190178132546114,1.03794376780239,Tsinhua
1995,2,4,1,4,3,2,4,4,2,2,2,2,2,1,3,2,3.5,0,2,3.33333333333333,71,4.05555555555556,0,2.72727272727273,1,4,2,2,5,4,5,2,5,6,4,3,4,3,2,3,2,5,2,3,2,4,4,4,3,5,5,6,3,2,6,2,6,3,6,5,4,11:15:16,2,2,1,2,2,2,2,2,2,2,2,2,2,4,2,4,2,2,2,2,11,4.66666666666667,2.63636363636364,4,3,3,4,2,2,2,2,2,3,2,3,4,3,4,3,3,4,2,4,2,4,1,2,4,3,1,3,2,4,4,2,4,2,2.76923076923077,2,2,2,1,0,4,1,5,0,2,1,4,1,2,1,2,4,1,1,1,1,2,1,1,志愿者协会, , , , ,2, , , , ,3,2,5,4,6,6,6,9,0,2,5,4,3,2,1,3,2,5,4,1,2,2,2,4,2,2,2,3,3,3,3,3,3,3,2,1,4,3,3,3,4,3,4,5,4,3,1,2,4,2,4,3,4,2,3,3,3,2,2,2,2,2,2,2,2,2,3.23076923076923,2,3,3,3,4,4,4,2,4,4,4,3,3,2,37.1,37.2,1,37.15,1,14,7,3,-.334968584543744,1.26386436402803,Tsinhua
1997,3,3,2,2,3,3,3,3,3,2,3,3,3,1,3,3,4.27777777777778,0,5,3.77777777777778,87,3.88888888888889,0,2.72727272727273,1,4,4,4,4,4,7,4,4,4,4,4,4,4,4,5,4,5,4,4,4,4,3,4,4,4,4,5,4,4,4,4,4,3,3,4,4,11:23:03,2.6,2,0,2,5,5,5,5,5,5,5,5,5,3,4,4,6,6,1,1,28,6.33333333333333,3.72727272727273,3,4,4,3,4,4,4,4,4,3,4,4,3,4,3,4,4,4,4,4,2,4,4,5,5,5,1,5,4,4,5,4,1,5,4,1,2,2,1,0,4,3,5,0,4,2,4,4,1,1,2,5,2,8,3,3,1,3,2,NA,NA,NA,NA,NA, , , , , ,3,2,4,7,7,7,7,9,2,2,4,4,4,2,2,2,2,4,2,2,3,3,3,3,4,3,4,3,4,4,4,4,4,4,4,2,3,4,3,4,4,4,4,4,4,3,3,3,3,3,3,4,3,3,3,3,3,3,3,3,4,3,3,3,3,3,2.15384615384615,4,2,1,2,2,2,2,2,2,2,4,4,2,1,36.7,36.8,1,36.75,1,17,7,3,.584038170363508,1.03794376780239,Tsinhua
1994,2,2,2,4,4,4,4,2,2,4,2,2,1,2,2,2,3.94444444444444,0,3.66666666666667,4.11111111111111,64,2.83333333333333,0,2.90909090909091,1,6,6,5,6,6,3,2,5,2,3,5,3,2,3,5,2,5,2,3,3,5,2,2,2,2,3,3,3,3,2,2,3,3,5,2,3,11:27:42,1.8,2,0,2,4,4,4,4,5,3,4,2,3,4,5,3,2,2,2,4,31,5.5,3.45454545454545,5,4,4,4,3,2,2,3,2,4,5,4,5,4,4,4,5,2,5,4,2,4,3,4,3,4,1,2,2,4,3,2,4,3,3,1,2,2,1,0,4,4,5,0,5,2,8,6,1,1,2,8,1,1,1,1,2,1,1,社会认知讨论小组,北海道大学2016年10月生,NA,NA,NA,6,7, , , ,5,2,4,5,7,5,6,9,3,2,4,5,5,4,3,4,2,4,3,1,2,2,4,5,4,3,2,4,3,3,4,2,3,3,2,2,2,2,4,2,3,4,2,5,4,4,4,2,4,1,4,2,2,2,4,2,4,2,5,2,5,2,3,4,2,3,3.46153846153846,3,3,4,4,2,3,5,4,2,4,3,4,4,4,36,36.2,1,36.1,1,12,7,3,.190178132546114,-.392886674960027,Tsinhua
1994,3,2,2,2,2,4,2,2,2,4,2,2,3,2,2,2,2.55555555555556,0,3.44444444444444,3.77777777777778,71,2.66666666666667,0,2.45454545454545,1,5,2,2,2,4,2,2,2,2,4,3,2,4,2,2,2,2,2,2,2,2,2,2,2,2,2,2,4,2,5,2,5,3,3,2,4,11:35:22,2.2,2,3,2,3,3,3,4,4,3,4,3,4,2,2,4,3,3,3,3,20,5.5,3.72727272727273,4,4,4,4,3,4,3,3,4,4,4,4,4,3,4,4,3,4,4,4,1,3,3,4,4,3,2,3,2,2,3,2,4,3,2.92307692307692,2,2,2,1,0,4,4,5,0,1,0,3,3,1,1,2,8,1,1,8,1,2,1,1,青年传媒中心,NA,NA,NA,NA, , , , , ,3,2,2,6,6,6,6,8,2,2,2,4,4,4,2,2,2,4,3,4,3,3,3,3,4,3,3,4,3,3,4,3,2,2,2,2,3,4,3,3,3,4,4,3,4,2,2,2,3,3,3,3,3,2,4,4,3,3,2,2,2,2,3,4,3,3,2.61538461538462,4,2,4,3,1,2,3,1,2,3,2,4,3,4,36.8,36.7,1,36.75,1,14,7,3,-1.45090535835969,-.618807271185672,Tsinhua
1995,3,2,3,3,2,4,2,2,3,3,3,3,4,3,3,4,4.27777777777778,0,4.22222222222222,3.55555555555556,70,4.44444444444444,0,2.72727272727273,1,5,4,4,4,5,4,2,3,5,2,6,3,5,6,3,6,5,5,5,3,5,4,3,5,5,5,5,4,4,5,4,3,6,6,4,4,11:40:42,3.4,2,2,2,4,4,5,4,4,5,4,4,4,4,4,7,6,5,4,5,32,3.16666666666667,3,3,2,4,3,2,4,2,3,3,4,3,3,4,4,3,4,3,3,4,4,1,4,3,4,3,3,4,3,2,4,4,3,2,3,3.23076923076923,2,2,2,1,0,4,4,5,0,3,4,3,4,1,1,2,6,2,1,4,3,1,5,1,社会,俱乐部,NA,NA,NA,3,2, , , ,4,2,3,3,3,3,3,9,3,2,3,2,3,2,2,3,2,3,2,2,3,2,3,3,2,4,2,4,2,3,2,4,2,4,2,2,3,3,3,2,3,3,3,3,3,3,2,3,4,2,4,3,3,2,3,4,2,3,3,3,2,3,4,4,2,3,2.76923076923077,2,2,4,3,4,2,4,3,2,3,3,2,2,2,36.4,36.4,1,36.4,1,14,7,3,.584038170363508,1.79101242188787,Tsinhua
1997,3,4,3,3,4,4,4,3,2,4,3,4,4,2,4,3,3.66666666666667,0,5,2.55555555555556,88,3,0,3.36363636363636,1,6,1,6,6,6,6,1,6,2,1,1,1,6,1,7,1,7,1,6,2,1,2,6,6,6,1,1,2,2,7,1,6,1,1,1,2,11:40:49,3.4,2,0,2,5,5,5,5,5,5,5,5,5,5,7,4,7,6,6,6,12,4.83333333333333,3.36363636363636,4,4,4,4,4,3,3,3,3,2,3,2,2,2,3,2,2,2,4,4,2,1,1,3,3,5,1,1,1,1,3,2,1,1,1.84615384615385,2,2,2,1,0,4,4,5,0,8,1,1,1,1,1,2,2,1,1,1,1,2,1,2,na,na,na,na,na, , , , , ,4,2,2,5,5,5,5,9,1,2,2,3,3,3,3,3,3,2,2,2,1,1,4,4,2,1,1,2,5,2,2,5,2,2,2,3,2,2,2,2,2,2,2,2,2,2,2,2,4,4,4,4,2,2,4,4,1,1,1,4,2,2,4,4,2,4,3.30769230769231,4,2,4,4,4,4,2,4,3,4,2,3,4,2,36.8,35.9,1,36.35,1,14,7,3,-.138038565635048,-.166966078734383,Tsinhua
1993,3,4,3,4,3,3,4,4,3,3,3,3,4,2,3,2,4,5,4,3.33333333333333,89,4,0,3.36363636363636,1,4,4,4,4,4,4,4,4,4,4,4,4,4,4,4,4,4,4,4,4,4,4,4,4,4,4,4,4,4,4,4,4,4,4,4,4,11:57:30,2.8,2,3,2,4,4,4,4,4,4,4,4,4,2,2,4,2,2,2,2,24,6.16666666666667,3.09090909090909,3,3,3,3,3,3,4,3,4,2,3,4,4,4,4,2,2,2,4,4,2,2,3,4,3,3,2,1,3,3,2,4,4,3,2.84615384615385,1,2,2,1,0,4,1,5,0,3,1,1,1,1,1,1,1,1,1,1,1,2,1,1,家庭,寝室,班级,Na,Na,4,4,40, , ,7,1,4,6,6,6,5,9,0,1,4,4,4,2,3,3,2,4,2,3,2,2,4,4,2,2,2,4,2,2,4,4,4,4,2,2,2,2,2,2,4,3,2,2,4,2,2,2,4,4,2,4,2,2,4,4,2,2,4,4,2,2,4,2,2,2,3,3,2,3,3,3,3,4,3,3,3,2,3,4,3,36.1,36.8,1,36.45,1,16,7,3,.255821472182346,1.18855749861948,Tsinhua
1967,3,4,4,3,4,3,4,4,3,3,3,3,4,3,4,2,4.05555555555556, ,3.33333333333333,3.11111111111111,67,3.72222222222222,0,3.45454545454545,1,4,4,4,4,4,4,4,4,4,4,4,4,4,4,4,4,4,5,4,4,4,4,4,4,4,3,4,4,3,3,3,4,4,4,4,3,12:10:28,3.2,2, ,2,3,3,3,3,3,4,4,3,4,2,2,4,3,3,1,1,31,5.66666666666667,3.54545454545455,4,3,4,4,4,3,4,3,3,3,4,4,3,2,2,4,1,4,4,4,2,4,3,3,4,4,2,3,3,3,3,3,2,3,3.07692307692308,1,2,4,2,3,2,2,2,1,4,4,6,4,1,1,1,6,1,6,4,1,2,1,2,中共党员, , , , ,3, , , , ,3,1,3,7,7,3,3,11,2,1,3,4,4,2,3,3,3,3,4,2,3,3,4,4,3,3,3,3,2,3,3,3,4,4,3,2,2,4,3,2,3,4,3,3,3,3,3,3,3,4,3,3,3,2,3,4,2,2,3,3,3,3,2,3,3,2,3.15384615384615,3,3,3,3,3,3,4,3,3,4,3,2,3,3,36.6,36.5,1,36.55,1,15,7,3,.321464811818579,.812023171576742,Tsinhua
1995,2,2,2,2,2,2,2,2,3,2,2,2,3,2,3,2,5,0,4,3.66666666666667,87,2.11111111111111,0,2.09090909090909,1,6,7,6,6,7,2,7,6,6,4,5,4,4,2,4,6,6,2,2,1,3,2,3,2,3,2,1,1,2,2,2,3,2,3,1,3,12:47:10,2.4,2,2,2,4,4,4,4,4,3,5,4,4,4,6,6,2,6,5,4,40,5.16666666666667,2.63636363636364,3,3,2,4,2,2,4,2,2,2,3,4,4,3,4,3,3,4,4,4,1,2,5,3,5,4,1,1,1,3,2,3,4,1,2.69230769230769,1,2,2,1,0,4,1,4,1,8,1,8,8,1,1,2,8,3,3,8,8,2,1,1,DNF官方测试团,CF核心竞品组,审计专业三班,兄弟伙吹会骚壳子,NA, , , ,12, ,3,1,3,6,6,4,5,10,3,1,3,4,4,4,2,3,3,4,3,2,3,4,1,3,4,3,3,4,3,3,4,4,2,3,3,2,2,4,3,2,4,2,3,3,4,5,3,1,4,4,3,4,3,2,3,4,4,4,4,2,3,3,3,3,4,2,2.53846153846154,2,3,2,2,2,2,3,3,2,3,2,2,5,2,37.2,36.9,1,37.05,1,11,7,3,1.43740158563453,-1.37187592527115,Tsinhua
1995,3,3,2,3,2,3,3,4,2,2,2,3,3,2,3,3,4.11111111111111,0,4,3.33333333333333,86,4,0,2.63636363636364,1,4,4,4,5,4,4,5,4,4,3,4,4,4,3,4,5,5,4,5,3,4,4,5,5,4,4,4,3,4,5,4,4,4,3,3,4,21:54:35,2.8,2,2,2,4,4,4,4,4,4,4,4,4,5,7,7,7,7,7,7,28,4.16666666666667,3.81818181818182,4,4,4,4,4,3,4,4,3,4,4,2,2,3,4,4,4,3,4,4,2,2,2,2,4,3,1,3,2,3,3,2,2,2,2.38461538461538,2,2,2,1,0,4,4,5,0,1,0,8,6,1,1,2,4,3,1,2,1,2,8,1,比赛组队,NA,NA,NA,NA,4, , , , ,3,4,4,4,4,4,4,8,3,4,4,4,4,2,4,4,4,4,3,3,3,2,3,3,3,3,2,3,4,3,3,3,3,3,3,2,3,4,4,4,4,4,3,2,3,3,3,4,2,3,2,3,3,3,3,4,2,2,4,3,3,4,4,4,4,4,3,2,3,4,3,3,3,3,3,3,3,3,3,4,2,36.2,36.2,1,36.2,1,19,7,3,.387108151454811,1.18855749861948,Tsinhua
1994,2,3,1,1,1,1,1,4,2,1,1,1,2,1,4,1,5.55555555555556,0,4.55555555555556,4.33333333333333,66,2.94444444444444,0,1.63636363636364,1,7,6,6,6,7,5,7,6,6,6,7,2,5,6,7,6,4,1,4,1,3,3,1,4,5,3,3,2,2,4,3,6,2,2,2,3,10:29:48,1.8,1, ,1,5,4,5,5,5,4,4,4,5,5,5,7,4,4,1,1,23,3.5,3.81818181818182,5,5,5,5,2,5,3,2,2,4,4,5,4,2,5,5,3,5,5,5,1,2,3,5,4,5,2,3,2,3,5,1,4,5,3.38461538461538,2,2,2,1,0,4,4,5,0,4,1,2,2,1,1,2,8,3,4,8,1,2,1,2, , , , , , , , , , ,2,1,3,5,4,2,2,9,2,1,3,3,4,1,1,1,5,5,2,1,3,3,4,4,3,4,4,5,3,4,5,3,3,4,2,2,4,3,3,2,5,4,1,2,5,1,1,1,3,5,1,5,5,4,3,2,2,4,4,2,3,5,4,3,3,4,3.38461538461538,2,5,5,3,3,3,4,3,5,3,4,5,2,2,36.5,36.8,1,36.65,1,13,7,3,2.09383498199685,-.242272944142931,Tsinhua
1996,4,3,4,4,2,4,3,2,4,4,4,2,2,2,4,2,5.38888888888889,0,4.33333333333333,4.33333333333333,71,2.55555555555556,0,3.45454545454545,1,6,6,6,7,6,4,6,6,2,4,5,4,6,5,6,6,6,6,5,2,3,2,2,2,2,2,3,2,2,2,2,4,2,2,2,5,10:42:22,2.4,2,1,1,4,4,4,4,4,4,5,5,5,3,5,7,4,4,5,6,33,6.33333333333333,4.63636363636364,5,5,5,5,4,4,5,5,5,3,5,4,5,4,4,4,5,4,4,5,2,3,2,4,4,4,2,2,2,2,4,1,2,3,2.69230769230769,1,2,2,1,0,4,3,5,0,7,3,6,6,1,1,1,8,1,1,1,8,2,2,1,班级,na,na,na,na,10, , , , ,5,2,2,6,7,7,7,9,4,2,2,5,4,4,4,5,5,4,2,4,4,4,3,5,5,5,5,5,3,4,5,4,2,2,2,2,4,4,4,4,4,4,4,4,4,4,3,2,4,4,4,4,4,3,4,4,3,4,4,2,4,5,3,3,4,3,3.92307692307692,4,5,5,3,3,2,4,4,4,4,5,4,3,5,37,37.2,1,37.1,1,16,7,3,1.89690496308815,-.769421002002768,Tsinhua
1995,4,2,4,3,4,4,4,4,3,2,2,2,2,2,1,1,5.44444444444444,4,5,3.77777777777778,74,3.61111111111111,10,3.27272727272727,1,6,5,5,6,6,4,5,6,6,5,6,7,5,5,5,5,6,5,6,3,3,2,2,3,2,6,6,3,3,6,3,2,3,5,2,5,10:43:05,1.6,2,9,1,5,5,5,5,5,5,5,5,5,4,5,7,2,2,3,3,25,6.16666666666667,3.36363636363636,4,4,3,4,3,2,3,3,3,4,4,4,4,3,4,3,4,4,4,4,1,3,2,4,2,2,1,1,1,2,2,1,2,2,1.92307692307692,1,1,2,1,0,4,4,5,0,8,1,8,6,1,1,2,3,3,1,2,7,2,1,1,英语话剧社,NA,NA,NA,NA,1, , , , ,5,2,4,7,6,5,6,9,3,2,4,5,4,3,3,5,4,4,2,1,2,3,4,5,4,4,3,4,4,2,4,4,2,2,2,3,3,5,5,4,5,5,4,2,5,4,4,2,4,4,3,4,2,3,5,4,3,4,2,2,5,3,2,5,2,2,3.53846153846154,4,4,2,3,4,3,4,4,4,4,4,2,4,2,37,36.9,1,36.95,1,16,7,3,1.96254830272439,.661409440759646,Tsinhua
1994,3,4,4,3,3,3,3,2,3,4,3,2,3,2,4,2,3.94444444444444,0,3.77777777777778,3.55555555555556,82,4.05555555555556,0,3.18181818181818,1,5,3,3,4,5,3,4,4,4,4,4,4,4,4,4,3,5,4,4,3,5,4,3,4,5,4,4,4,3,5,3,5,4,5,4,4,11:08:02,2.6,2,0,1,4,4,4,4,4,3,4,3,4,3,3,4,5,5,3,3, ,4.83333333333333,3.54545454545455,4,4,3,4,3,4,4,4,2,3,4,4,4,4,4,2,3,3,4,4,2,3,3,3,4,4,2,3,2,4,4,4,4,4,3.38461538461538,2,2,2,1,0,4,3,5,0,1,0,5,5,1,1,2,3,1,1,1,6,2,1,2,班级,双学位班级,NA,NA,NA, , ,0,0,0,4,2,2,6,5,4,4,8,2,2,2,4,4,4,3,2,4,4,3,1,2,2,3,3,3,2,2,4,4,3,4,4,3,3,2,2,2,4,4,2,5,4,3,2,4,4,4,2,3,4,4,3,2,2,4,3,4,4,3,3,3,4,4,4,3,3,3.30769230769231,3,4,4,4,3,3,4,1,4,3,4,4,3,3,37.3,36.6,1,36.95,1,17,7,3,.190178132546114,1.26386436402803,Tsinhua
1996,3,3,3,5,1,1,4,1,5,3,1,2,1,5,5,5,1,0,3.77777777777778,2.55555555555556,63,5.38888888888889, ,2.72727272727273,1,1,1,1,1,1,1,1,1,1,1,1,1,1,1,1,1,1,1,1,7,7,7,7,1,1,7,7,7,7,7,7,1,7,7,7,2,19:16:00,3.6,2,14,3,4,5,2,4,5,4,3,4,3,2,2,1,1,2,1,2,9,2.16666666666667,2.63636363636364,5,2,4,4,3,1,2,1,2,2,3,2,4,2,4,2,1,2,4,2,2,4,1,1,2,2,1,3,1,1,1,2,5,3,2.07692307692308,2,2,2,1, ,4,4,5, ,3,1,2,2,1, ,2,2,1, , ,1,1, ,1, , , , , , , , , , ,1,4,2,2,2,2,2,6,1,4,5,5,1,1,5,4,2,5,5,1,2,1,4,4,2,2,2,4,4,1,1,1,2,2,1,1,5,5,3,5,2,5,1,1,5,4,3,4,4,5,1,2,1,4,3,3,1,1,1,5,4,1,1,1,1,4,3.53846153846154,2,4,4,4,4,2,4,3,4,4,5,4,1,5,35.6111111111111,36.6111111111111,2,36.1111111111111,1,6.66666666666667,5,1,-1.97580681116421,2.29548907310947,UCSB
1996,2,2,3,2,1,1,2,4,4,3,2,2,2,1,2,3,2.44444444444444,0,4.33333333333333,2.55555555555556,83,5.22222222222222, ,2.36363636363636,1,2,2,3,3,4,2,1,3,4,2,2,2,2,2,2,2,2,4,6,5,7,6,5,6,5,4,5,4,6,7,3,5,5,6,5,4,11:19:00,2,1,0,4,4,5,4,3,5,5,3,5,5,5,6,2,2,2,2,2,21,3.5,2.18181818181818,4,4,4,3,1,1,1,1,1,1,3,3,4,2,4,2,2,2,2,2,2,2,4,5,2,2,2,4,2,2,3,4,4,5,3.15384615384615,2,2,2,1, ,4,2,2,1,2,1,8,8,1, ,2,8,1, , ,8,1, ,1, , , , , , , , , , ,5,2,2,2,5,5,5,7,4,1,4,4,4,4,4,4,4,2,2,1,2,2,4,4,5,4,4,3,3,4,3,3,3,3,3,4,2,4,4,3,1,2,4,5,5,3,5,2,2,2,5,2,2,3,4,5,4,4,2,4,2,2,4,2,2,1,3.61538461538462,4,3,5,3,3,4,4,4,4,3,4,5,2,4,35.9444444444444,36.9444444444444,2,36.4444444444444,1,11.1111111111111,5,1,-.80335002212171,2.12584070183039,UCSB
1996,4,4,5,4,4,4,5,2,5,5,5,2,4,4,5,3,3.38888888888889,0,3,2.33333333333333,65,5.22222222222222,0,4.27272727272727,1,4,4,6,5,1,1,2,5,3,2,3,1,5,1,6,1,7,4,7,3,7,5,6,6,6,3,7,6,4,4,4,6,6,6,5,3, ,3.6,2,0,2,4,4,3,3,1,4,4,2,2,1,2,2,2,2,3,1, ,4.66666666666667,2.09090909090909,2,4,2,2,1,1,1,2,5,1,2,1,4,1,4,2,1,2,4,2,2,1,3,2,1,1,4,2,2,1,2,1,5,1,2,2,1,2,1, ,4,2,2,1,4,1,3,2,1, ,2,2,1, , ,4,1, ,2,Water Polo,Triathlon,N/A,N/A,N/A,7,3,0,0,0,5,4,5,3,6,5,6,8,1,4,4,4,4,1,5,4,2,5,4,2,1,2,5,4,4,4,2,3,2,3,3,2,3,1,3,2,4,5,5,2,2,1,4,1,5,2,5,3,2,3,5,2,2,4,2,4,1,2,2,5,5,1,3,3,1,4,4,5,4,5,3,3,2,4,5,3,4,5,5,4,5,36.6111111111111,36.8333333333333,2,36.7222222222222,1,9.44444444444444,5,1,-.0367436600554628,2.12584070183039,UCSB
1994,2,3,1,3,1,2,2,1,4,2,1,1,1,2,4,2,1.66666666666667,0,4.44444444444444,2.11111111111111,54,5, ,2,1,1,1,1,1,1,1,1,1,7,1,7,1,1,1,1,1,1,1,1,7,1,7,1,1,1,7,7,7,7,7,7,1,7,7,7,7, ,2,2,0,4,5,5,5,5,5,5,3,4,3,1,2,5,2,2,2,1, ,4,1.54545454545455,4,2,1,1,1,1,1,2,1,1,2,1,4,1,4,2,2,2,2,1,2,4,4,2,4,5,2,3,2,2,4,4,5,4,3.46153846153846,2,2,2,1, ,4,4,5, ,1, ,5,2,2,1,2,3,1, , ,1,1, ,2,NHCC,0,0,0,0,6,0,0,0,0,3,5,4,4,4,4,3,7,1,3,3,4,4,2,2,5,3,5,2,1,2,3,4,4,3,4,4,3,3,4,3,1,3,2,3,1,4,5,4,3,2,2,2,4,5,4,4,1,3,4,4,2,2,2,4,4,3,2,2,4,2,2,2,2,4,2,2.46153846153846,2,2,3,2,3,2,3,3,1,3,2,3,3,3,37,36,2,36.5,1,6.66666666666667,5,1,-1.43467290852921,1.89964287345829,UCSB
1996,2,4,1,2,2,2,4,4,2,2,4,2,2,2,2,2,3.94444444444444,0,4.11111111111111,2.77777777777778,84,5, ,2.63636363636364,1,5,5,4,3,5,2,2,5,5,2,6,2,4,2,7,2,6,4,2,3,6,6,6,6,6,6,6,3,3,6,2,6,6,6,7,4, ,2,2,2,3,5,5,5,4,4,5,3,3,3,2,2,1,2,2,2,2,16,4.66666666666667,1.90909090909091,2,1,2,2,2,2,2,2,2,2,2,2,2,2,4,2,3,4,4,2,2,2,1,2,2,2,1,2,3,1,2,2,4,2,2,2,2,2,1, ,4,4,5, ,2,2,3,3,1, ,2,6,1, , ,1,1, ,2,Phi Delta Epsilon, , , , ,5, , , , ,4,5,3,5,6,5,5,6,2,2,4,4,4,4,2,4,5,5,4,2,1,1,5,5,2,1,1,1,3,1,1,1,3,3,3,1,4,3,5,2,4,4,1,2,2,4,2,2,4,5,4,4,1,1,3,4,1,1,1,2,4,4,4,4,1,5,4.23076923076923,5,4,5,3,5,4,4,5,3,4,5,5,3,5,36.2777777777778,36.5,2,36.3888888888889,1,10.5555555555556,5,1,.414201258807036,1.89964287345829,UCSB
1996,4,4,2,4,2,2,4,4,2,2,2,2,4,2,2,2,3.27777777777778,0,3.55555555555556,2.22222222222222,58,5, ,2.90909090909091,1,4,4,3,3,4,4,1,5,4,4,3,3,4,1,5,1,5,1,4,7,5,7,1,4,4,7,7,3,4,7,3,5,4,7,7,4,10:51:00,2.4,2,2,3,5,4,5,4,2,4,2,4,2,1,2,2,2,2,2,2,12,3.33333333333333,2,2,2,2,2,2,2,2,2,2,2,2,2,2,2,2,4,2,2,2,2,2,2,1,2,2,4,1,2,2,2,2,4,4,4,2.46153846153846,1,2,2,1, ,4,2,5, ,2,2,5,4,1, ,2,6,1, , ,1,1, ,2,Khmer, , , , ,2, , , , ,4,4,3,3,3,3,3,6,2,4,4,5,3,2,1,1,4,4,4,2,2,3,4,4,3,2,2,3,2,2,3,2,3,4,2,2,4,4,4,4,2,4,2,1,2,2,2,2,4,4,2,2,2,4,2,4,2,2,4,4,4,2,4,4,2,4,2.92307692307692,3,2,2,3,3,3,3,2,4,4,2,3,4,3,36.2777777777778,37.2222222222222,2,36.75,1,10,5,1,-.126932643827962,1.89964287345829,UCSB
 ,3,4,1,4,3,4,5,4,4,2,4,2,4,4,4,4,3.61111111111111,0,4.55555555555556, ,82,4.94444444444444, ,3.45454545454545, ,4,4,3,3,5,5,3,4,3,2,5,2,5,2,6,3,5,1,6,5,6,5,6,4,5,5,5,5,5,5,3,5,5,5,5,4,1:45:00,3.6, ,4,4,5,3,5,5,3,5,5,5,5,5,6,3,2,2,4,5,27, , , , , , , , , , , , , , , , , , , , , , , ,2,2,4,1,2,2,2,2,2,3,2,4,2,2.30769230769231, , ,2,1, ,4,2,5, ,3,2,8,8,1, ,2,8,2,1,5,8,1, ,2, , , , , , , , , , , , , , , , , ,7,4,1,2,4,5,4,5,4,4,3,2,4,4,2,4,4,5,4,3,5,2,5,3,3,1,4,2,5,1,2,4,1,4,2,2,4,3,2,2,2,4,4,4,3,2,1,4,4,2,2,2,2,4,2,2,4,2,4,3.30769230769231,3,3,4,2,4,3,2,4,4,3,4,4,3,4,35.7777777777778, , ,35.7777777777778,1,8.33333333333333,5,1,.143634307489537,1.84309341636526,UCSB
1996,3,4,2,3,3,3,3,4,4,3,3,2,3,2,3,2,3.5,0,3.88888888888889,3.66666666666667,69,4.55555555555556, ,3.18181818181818,2,2,2,4,5,2,4,4,5,2,4,4,4,4,2,4,4,5,2,5,4,6,5,5,6,4,5,4,4,3,6,4,5,4,4,4,4,10:24:00,2.4,2,0,3,4,4,4,3,4,4,4,4,4,3,3,3,2,2,4,2,10,4.5,2.27272727272727,2,2,2,2,2,2,3,2,2,4,2,4,4,3,3,4,3,4,4,4,2,3,3,4,4,4,2,3,3,2,4,4,4,4,3.38461538461538,2,2,2,1, ,4,2,5, ,2,2,4,4,1, ,2,7,1, , ,1,1, ,1, , , , , , , , , , ,4,5,4,4,5,5,5,6,2,2,4,4,4,2,2,2,3,4,4,2,2,3,4,4,4,3,2,3,4,3,3,3,3,2,3,2,4,4,3,4,4,3,2,4,3,4,3,2,4,3,2,3,2,4,3,4,2,2,2,4,3,2,3,2,2,2,3.07692307692308,3,3,5,2,2,2,3,4,1,3,3,5,4,5,36.1666666666667,37.1111111111111,2,36.6388888888889,1,8.33333333333333,5,1,.053445323717037,1.44724721671409,UCSB
1997,5,5,3,4,2,4,5,5,5,5,2,3,4,3,4,3,4.38888888888889,0,3.22222222222222,3.33333333333333,72,4.55555555555556, ,4.09090909090909,2,4,5,4,6,4,6,3,5,4,4,4,4,5,5,5,4,3,4,5,5,5,5,5,5,3,5,5,4,3,5,5,5,5,5,3,4,11:53:00,3.4,2,0,3,4,3,4,2,3,4,2,4,3,3,3,3,5,2,3,2,14,5.33333333333333,3.36363636363636,4,3,3,4,3,3,3,3,3,4,4,4,4,2,4,2,2,4,4,4,2,2,4,3,4,3,2,3,4,3,4,4,2,3,3.15384615384615,2,2,2,1, ,4,2,5, ,1, ,5,3,1, ,2,8,1, , ,8,1, ,1, , , , , , , , , , ,6,4,5,5,6,6,4,5,2,2,4,4,4,5,2,4,5,3,2,3,2,4,4,5,3,5,5,3,3,2,3,2,3,4,3,4,2,2,4,2,2,4,2,4,4,2,1,4,4,5,3,4,2,2,4,4,2,3,4,5,5,3,3,3,1,4,3.07692307692308,3,3,3,3,3,3,3,3,3,3,3,4,3,4,36.7777777777778,37.1111111111111,2,36.9444444444444,1,10.5555555555556,5,1,.774957193897035,1.44724721671409,UCSB
 ,2,4,2,3,4,2,2,4,2,2,2,2,2,2,3,1,4.55555555555556,0,3.11111111111111,2.33333333333333,92,4.38888888888889, ,2.63636363636364,1,5,5,4,5,5,7,4,4,4,4,5,4,4,3,6,3,6,4,4,3,5,5,5,4,5,5,5,4,4,4,2,5,5,6,4,4, ,2,2,7,3,2,3,4,2,2,4,3,4,4,4,5,6,4,4,4,3,8,4.5,2,4,2,4,2,1,1,1,1,1,1,4,2,3,2,4,4,1,1,2,2,2,2,5,3,3,5,4,4,1,4,4,3,1,5,3.38461538461538,2,2,2,1, ,4,2,5, ,1, ,1,3,2,1,2,4,1, , ,1,1, ,1, , , , , , , , , , ,5,6,5,3,5,3,5,6,0,4,5,4,4,2,4,2,2,4,2,2,2,4,4,3,4,1,4,3,2,4,3,2,4,5,3,1,4,3,3,4,2,4,4,4,4,4,2,1,4,3,2,2,1,4,4,4,4,3,2,4,2,2,2,2,3,3,2.53846153846154,3,3,3,2,3,2,2,3,3,2,2,3,2,3,36.4444444444444,36.4444444444444,2,36.4444444444444,1,13.8888888888889,5,1,.910240669555784,1.27759884543501,UCSB
1997,2,1,1,2,1,1,1,2,1,1,1,1,1,5,5,1,2.61111111111111,0,3.22222222222222,2.11111111111111,84,4.27777777777778, ,1.27272727272727,1,2,2,2,2,4,2,2,2,2,7,2,2,1,2,2,2,7,2,7,7,4,2,3,5,2,5,3,6,2,7,1,6,3,6,2,6, ,2.6,2,4,4,5,5,5,5,5,1,1,1,1,4,4,1,1,1,5,2,10,5.5,1.36363636363636,1,1,1,1,1,1,1,1,1,5,1,1,1,1,4,2,2,1,3,4,2,1,1,4,1,1,1,2,4,4,4,1,5,4,2.53846153846154,1,2,2,1, ,4,2,5, ,8,1,3,3,1, ,2,2,1, , ,1,1, ,2,Rock Climbing Club, , , , ,2, , , , ,6,6,5,5,6,5,6,6,0,4,5,5,4,2,2,5,3,4,3,5,2,2,5,5,4,1,1,1,4,3,1,1,2,4,1,2,4,5,3,4,3,2,1,4,5,5,5,1,1,5,5,1,1,3,4,5,1,1,1,5,5,1,4,3,3,4,2.53846153846154,3,2,5,2,3,2,3,3,3,2,2,5,1,2,35.8888888888889,36.1666666666667,2,36.0277777777778,1,10.5555555555556,5,1,-.66806654646296,1.16449993124896,UCSB
1997,3,4,3,4,4,4,4,4,4,3,2,2,4,2,2,3,4.16666666666667,0,4.33333333333333,3.77777777777778,71,4.22222222222222, ,3.54545454545455,1,4,4,4,4,4,4,4,4,4,4,4,4,4,4,4,4,7,4,4,4,6,4,4,6,1,4,7,4,4,4,4,4,4,4,4,4, ,2.6,2,0,3,4,4,4,4,4,5,4,5,5,5,6,5,1,4,6,2,8,4.33333333333333,2.54545454545455,3,3,2,3,2,2,2,3,3,2,3,3,5,4,3,3,3,4,5,4,2,3,2,4,3,4,2,2,2,1,3,4,3,4,2.84615384615385,2,2,2,1, ,4,2,5, ,2,2,1,2,1, ,2,1,1, , ,1,1, ,1, , , , , , , , , , ,4,4,4,4,5,5,5,6,1,3,3,4,3,2,2,2,3,5,4,2,2,2,3,3,4,2,3,3,4,3,3,4,3,2,3,2,3,4,4,3,3,4,3,4,3,3,2,2,4,2,3,4,3,3,4,4,4,3,3,3,3,3,3,3,2,3,3.30769230769231,4,4,5,2,3,3,3,4,2,2,4,4,3,4,36.3333333333333,36.1111111111111,2,36.2222222222222,1,16.1111111111111,5,1,.594579226352035,1.10795047415594,UCSB
1994,2,3,4,2,2,2,2,2,2,2,2,5,3,2,2,2,4.88888888888889,0,4,4,86,4.22222222222222, ,2.27272727272727,1,5,5,5,5,6,4,5,6,5,3,2,5,5,5,7,5,6,4,6,3,5,3,3,3,3,6,6,3,3,3,5,2,5,5,5,7,10:26:00,2.8,2,25,2,4,4,4,4,4,3,5,4,4,5,2,2,2,2,2,2,12,6.33333333333333,3.09090909090909,4,2,4,3,4,4,2,3,1,3,4,4,4,4,4,4,4,4,4,4,2,1,1,4,2,3,1,1,2,2,2,2,3,3,2.07692307692308,1,2,2,1, ,4,4,5, ,2,2,4,4,1, ,2,1,1, , ,1,1, ,1, , , , , , , , , , ,7,6,6,6,7,6,7,6,1,3,4,4,2,2,4,5,5,5,4,2,1,4,4,5,4,3,1,4,3,1,3,3,2,4,2,1,4,5,5,3,2,4,2,1,2,2,1,3,5,4,2,4,1,2,4,4,2,2,2,4,2,2,2,4,2,5,3.69230769230769,4,4,4,3,4,4,4,4,3,4,3,5,3,4,36.3888888888889,37,2,36.6944444444444,1,12.2222222222222,5,1,1.18080762087328,1.10795047415594,UCSB
1997,4,3,3,4,4,4,3,3,2,3,2,2,3,3,3,2,4.05555555555556,1,2.88888888888889,3,56,4.22222222222222, ,3.18181818181818,1,4,5,4,5,3,4,6,2,5,5,3,3,5,3,2,4,6,4,3,3,5,3,5,5,3,5,4,4,6,5,5,5,6,2,3,4, ,2.6,2,4,2,4,2,3,3,4,2,2,3,3,4,6,4,4,4,5,4,17,5,2.90909090909091,3,4,3,2,3,2,4,2,3,3,3,2,4,3,3,3,4,2,3,3,2,3,2,2,2,3,2,2,4,4,5,3,2,4,2.92307692307692,2,2,2,1, ,4,4,5, ,8,3,6,6,1, ,2,8,1, , ,3,1, ,1, , , , , , , , , , ,5,7,5,4,4,5,4,6,3,3,4,4,4,4,4,2,4,5,2,3,3,4,3,4,3,3,3,3,4,2,3,3,2,4,3,1,3,4,4,4,2,4,2,3,4,3,2,3,4,3,3,4,3,2,4,2,2,3,3,4,2,4,3,3,4,4,3,3,3,4,2,3,4,2,3,2,3,4,3,3,3,36,35.5,2,35.75,1,6.66666666666667,5,1,.504390242579535,1.10795047415594,UCSB
 ,3,4,2,4,3,2,4,4,4,2,4,2,2,2,2,2,4.38888888888889,0,4,3.11111111111111,87,4.16666666666667,0,3.27272727272727,1,7,5,5,5,5,4,6,7,3,4,2,3,4,2,5,2,6,4,6,3,6,3,5,5,3,3,6,3,3,6,3,7,2,6,2,3, ,2,2,2,3,4,4,4,4,4,4,4,4,4,5,7,6,5,4,5,7, ,4.66666666666667,3.18181818181818,4,4,4,4,3,2,2,2,4,2,4,2,4,2,4,3,2,2,5,4,1,2,2,4,2,2,2,2,2,2,4,2,3,2,2.38461538461538,2,1,2,1, ,4,4,2,1,8,2,8,8,1, ,2,8,3,1,8,8,2,8,2,Skii Team,0,0,0,0,5,0,0,0,0,6,4,4,3,5,6,5,10,5,2,3,3,5,4,5,3,3,3,2,2,4,3,4,3,4,4,4,4,3,4,2,4,2,3,2,5,3,4,4,2,4,4,2,4,2,3,1,2,3,3,4,2,2,3,3,4,2,3,4,2,4,2,4,4,2,4,3.23076923076923,3,3,4,3,4,4,2,4,2,4,2,4,4,3,36.7777777777778,36.8333333333333,2,36.8055555555556,1,8.33333333333333,5,1,.774957193897035,1.05140101706291,UCSB
1996,4,5,3,5,3,1,5,3,3,4,4,3,2,1,2,3,4.22222222222222,0,2.55555555555556,2.22222222222222,84,4.16666666666667, ,3.63636363636364,1,4,4,4,5,4,4,4,4,4,4,6,4,4,4,5,4,4,4,4,4,7,4,4,4,4,4,4,4,4,4,4,4,4,4,4,4, ,2.2,2,0,3,2,4,3,3,3,2,1,3,2,5,6,6,6,5,5,5, ,4.83333333333333,2.45454545454545,5,3,4,3,1,1,1,1,2,1,5,1,5,2,4,2,1,3,1,1,2,3,4,2,5,4,3,3,2,3,4,3,4,4,3.38461538461538,1,2,2,1, ,4,2,5, ,8,1,6,5,1, ,2,8,1, , ,8,2,8,2,CKI,N/A,N/A,N/A,N/A,7,0,0,0,0,4,6,5,4,5,5,4,8,4,3,4,5,2,1,3,3,3,5,4,2,1,3,5,5,5,1,4,3,3,3,3,2,3,4,3,1,5,5,2,3,2,1,1,2,4,3,2,2,4,4,1,2,1,4,4,5,1,1,4,4,3,1,3,1,3,1,3.30769230769231,4,4,4,3,3,3,3,3,3,3,4,5,2,4,36.4444444444444,36.5555555555556,2,36.5,1,7.22222222222222,5,1,.639673718238285,1.05140101706291,UCSB
1997,2,3,2,4,3,2,2,3,1,2,4,2,3,1,2,4,5.38888888888889,0,2.77777777777778,4.33333333333333,84,4.11111111111111,5,2.54545454545455,1,5,6,5,5,3,5,7,6,5,2,7,4,5,6,7,7,6,6,5,7,4,4,4,6,6,2,4,3,2,3,3,6,5,4,3,3, ,2.4,2,3,2,4,3,4,2,3,2,2,3,2,1,1,1,1,1,1,1, ,4,4,3,5,3,5,3,5,5,4,3,5,3,5,5,2,5,5,4,4,4,5,1,1,1,1,1,1,2,1,1,3,2,2,4,2,1.69230769230769,2,1,2,1, ,4,4,5, ,7,4,4,4,1, ,2,4,3,8,4,1,1, ,2,social club,IORG,na,na,na,4,2,0,0,0,3,6,5,5,2,3,3,8,1,2,5,4,3,2,3,5,3,5,5,3,4,4,4,5,2,5,3,3,2,1,1,1,2,5,3,1,4,5,3,3,2,4,2,1,3,3,4,4,2,3,4,2,5,4,3,4,5,3,4,3,2,3,4,2,2,4,4,5,5,5,3,4,2,3,5,3,4,5,2,3,5,36.2222222222222,36.4444444444444,2,36.3333333333333,1,7.22222222222222,5,1,1.58665804784953,.994851559969887,UCSB
1995,3,3,3,2,3,3,3,3,3,3,3,2,3,2,3,3,4,0,4.11111111111111,3.55555555555556,62,4.05555555555556, ,2.90909090909091,2,4,4,4,4,4,4,4,4,4,4,4,4,5,4,4,4,3,4,4,4,4,5,4,4,4,4,4,4,4,4,4,4,4,4,4,4, ,2.6,2,0,3,5,4,4,4,4,4,4,4,4,5,5,3,2,2,5,2,11,3.33333333333333,2.63636363636364,4,2,4,3,3,1,3,2,1,2,4,3,4,3,4,2,4,4,4,4,2,3,5,3,2,3,1,3,3,3,4,4,3,3,3.07692307692308,1,2,2,1, ,4,3,2,1,4,1,4,4,1, ,2,2,1, , ,1,1, ,1, , , , , , , , , , ,2,4,4,4,4,2,2,7,1,3,5,4,3,2,3,3,2,5,4,3,2,4,4,3,4,4,4,3,3,4,3,3,3,3,3,1,4,5,4,3,2,3,3,3,3,3,3,4,3,4,4,3,3,3,3,3,3,3,3,4,4,4,3,2,3,3,3.15384615384615,3,4,4,2,3,3,3,4,2,3,3,4,3,4,37.5,36.9444444444444,2,37.2222222222222,1,16.6666666666667,5,1,.459295750693286,.938302102876862,UCSB
1995,2,2,1,2,2,1,2,2,2,4,4,2,2,2,2,2,2.72222222222222,0,4.11111111111111,2.66666666666667,45,4.05555555555556, ,2.18181818181818,1,3,3,2,2,3,2,2,5,3,3,3,2,2,2,3,2,5,2,2,2,6,5,5,3,6,5,6,2,3,2,1,5,6,6,5,3, ,2,2,0,4,4,4,4,5,5,4,3,4,4,3,4,5,2,2,3,3,13,4.33333333333333,2.27272727272727,4,2,2,4,2,1,2,2,2,2,2,4,2,2,2,2,2,2,4,4,2,2,5,4,3,3,5,4,4,4,4,4,4,5,3.92307692307692,2,2,2,1, ,4,2,5, ,6,1,6,6,1, ,2,8,1, , ,3,1, ,1, , , , , , , , , , ,4,5,4,4,5,4,4,6,2,1,4,2,4,4,4,4,4,4,2,1,2,2,4,4,4,3,4,4,4,3,2,4,2,2,2,2,2,2,4,2,4,4,2,5,4,4,2,2,2,4,4,2,2,1,4,4,2,2,4,2,4,2,4,4,2,4,2.69230769230769,2,2,4,3,3,3,3,2,3,2,3,5,2,3,37,37,2,37,1,6.11111111111111,5,1,-.577877562690461,.938302102876862,UCSB
1997,4,4,1,4,3,2,4,4,2,3,2,1,1,2,2,1,2.16666666666667,0,3.55555555555556,2.55555555555556,91,4.05555555555556, ,3,1,1,2,2,2,4,4,5,3,2,1,2,2,1,2,1,2,2,1,6,3,6,5,5,3,3,3,2,5,5,3,2,4,6,6,3,3, ,1.4,2,12,4,4,3,5,4,4,3,2,4,3,5,5,4,2,2,4,5,43,5.33333333333333,3.18181818181818,4,4,5,4,2,2,2,4,2,2,4,3,4,1,4,2,2,2,2,3,2,2,5,5,4,4,4,4,4,4,5,4,5,5,4.23076923076923,1,2,2,1, ,4,4,3,1,2,1,8,8,1, ,2,8,1, , ,8,1, ,2,RHA,Economics,Psychology,Freshman Seminar,Hall Events,7,5,3,2,3,6,5,5,4,6,6,5,8,4,4,4,5,5,2,2,2,2,4,2,2,3,4,4,3,4,5,2,4,3,4,3,3,4,2,4,2,4,2,2,3,1,1,1,3,5,3,4,2,2,4,5,2,2,3,5,4,3,5,3,5,4,3,2,2,4,1,1.53846153846154,2,2,3,1,1,1,2,2,1,1,2,4,1,1,36.5555555555556,36.7222222222222,2,36.6388888888889,1,13.8888888888889,5,1,-1.02882248155296,.938302102876862,UCSB
1996,4,4,3,4,4,4,4,4,4,4,4,2,2,3,2,3,4,0,5,2.88888888888889,65,4, ,3.90909090909091,1,4,4,4,4,4,4,4,4,4,4,4,4,4,4,4,4,4,4,4,4,4,4,4,4,4,4,4,4,4,4,4,4,4,4,4,4, ,2.4,2,2,3,5,5,5,5,5,5,5,5,5,4,5,5,5,5,5,5,11,3.5,3.18181818181818,4,3,4,4,4,2,2,2,3,3,4,3,4,2,4,2,2,2,4,3,2,2,3,4,4,4,2,3,2,2,3,3,4,4,3.07692307692308,2,2,2,1, ,4,4,5, ,2,2,1,1,1, ,2,1,3,1,1,1,1, ,1, , , , , , , , , , ,4,3,3,3,4,4,4,7,1,2,3,2,4,5,3,3,4,4,3,1,1,3,4,4,3,4,4,3,4,3,3,4,3,4,3,2,2,2,4,2,3,4,1,2,4,2,2,2,4,4,3,4,4,1,3,4,2,2,3,3,4,2,4,3,2,4,2.92307692307692,4,3,3,3,3,3,3,2,3,3,2,4,3,3,36.7222222222222,36.4444444444444,4,36.5833333333333,1,20.5555555555556,5,1,.459295750693286,.881752645783837,UCSB
1997,1,4,1,4,2,1,2,3,1,1,1,4,4,4,4,4,3.77777777777778,0,4.33333333333333,4,92,4, ,1.90909090909091,1,4,4,4,4,4,2,4,4,4,4,4,4,4,2,4,4,4,4,4,4,4,4,4,4,4,4,4,4,4,4,4,4,4,4,4,4, ,4,2,0,4,5,5,5,5,5,4,2,4,4,4,3,3,3,3,3,3,14,4.16666666666667,3.81818181818182,4,4,4,4,4,2,4,4,4,4,4,4,4,4,4,4,4,4,4,4,2,3,2,4,3,4,4,2,2,4,3,5,4,4,3.38461538461538,2,2,2,1, ,4,4,5, ,2,2,5,3,1, ,2,5,1, , ,4,1, ,1, , , , , , , , , , ,4,4,4,3,5,5,4,6,2,2,4,4,4,2,2,2,2,4,4,1,1,2,4,4,3,2,2,3,3,2,2,2,3,2,3,3,3,4,4,3,1,2,3,4,4,4,2,2,2,3,3,4,2,2,3,4,2,2,3,4,4,2,3,3,2,4,2.69230769230769,2,3,3,3,3,3,3,3,2,2,3,4,2,3,36.4444444444444,36.4444444444444,2,36.4444444444444,1,13.8888888888889,5,1,.278917783148286,.881752645783837,UCSB
1996,3,3,3,3,3,3,3,3,3,3,3,3,3,3,3,3,4,0,3,3,92,4,1,3,1,4,4,4,4,4,4,4,4,4,4,4,4,4,4,4,4,4,4,4,4,4,4,4,4,4,4,4,4,4,4,4,4,4,4,4,4, ,3,2,0,3,3,3,3,3,3,3,3,3,3,1,1,4,5,5,5,5,23,4.5,3,3,3,3,3,3,3,3,3,3,3,3,3,3,3,3,3,3,3,3,3,1,3,3,3,3,3,3,3,3,3,3,3,3,3,3,2,1,2,1, ,4,4,5, ,8,4,7,3,2,1,2,3,1, , ,3,1, ,2,friends, , , , ,7, , , , ,7,4,4,4,4,4,4,7,1,3,3,3,3,3,3,3,3,3,3,3,3,3,3,3,3,3,3,3,3,3,3,3,3,3,3,3,3,3,3,3,3,3,3,3,3,3,3,3,3,3,3,3,3,3,3,3,3,3,3,3,3,3,3,3,3,3,3,3,3,3,3,3,3,3,3,3,3,3,3,3,3,35.5555555555556,35.5555555555556,1,35.5555555555556,1,13.8888888888889,5,1,.459295750693286,.881752645783837,UCSB
1997,3,3,3,3,3,3,3,3,3,3,3,3,3,3,3,3,4,0,3,3.33333333333333,65,4, ,3,1,4,4,4,4,4,4,4,4,4,4,4,4,4,4,4,4,4,4,4,4,4,4,4,4,4,4,4,4,4,4,4,4,4,4,4,4,19:53:00,3,2,0,1,3,3,4,2,3,3,3,2,4,3,3,4,5,4,6,5,23,4.33333333333333,3,4,2,2,4,3,2,3,4,2,4,3,4,2,2,3,4,4,5,3,3,1,3,3,3,3,3,3,3,3,3,3,3,3,3,3,2,2,5,8,3,2,2,2,2,2,3,2,2,2,1,2,2,3,2,3,4,1, ,1, , , , , , , , , , ,7,4,3,5,4,3,5,10,1,3,3,3,2,4,3,2,3,3,2,3,3,4,3,4,5,5,5,3,3,3,2,4,2,3,3,3,5,4,3,3,4,2,2,4,4,4,3,2,4,3,4,3,2,4,3,3,4,2,3,4,1,3,3,4,3,2,3.84615384615385,5,4,5,3,4,3,3,5,3,3,4,5,3,5,37,36.8888888888889,2,36.9444444444444,1,9.44444444444444,5,1,.459295750693286,.881752645783837,UCSB
1997,4,4,2,4,2,3,3,3,3,3,2,3,3,3,4,2,2.72222222222222,0,2.88888888888889,3.66666666666667,57,4,0,3,1,2,2,4,4,2,2,1,2,4,2,4,4,4,2,1,4,4,1,4,4,4,4,4,2,4,4,4,4,6,4,4,2,4,4,4,6, ,3,2,52,3,3,3,3,4,4,2,2,3,2,3,3,3,2,2,3,2,12,1.83333333333333,3.18181818181818,4,4,4,4,3,2,3,3,2,2,4,4,2,4,4,4,3,5,3,4,2,3,3,2,1,3,2,2,1,1,3,4,4,3,2.46153846153846,1,1,2,1, ,4,2,5, ,3,1,4,3,1, ,2,8,1, , ,5,1, ,1, , , , , , , , , , ,6,1,1,1,1,1,1,6,2,2,3,4,4,4,3,3,4,4,2,2,3,4,3,3,4,4,4,4,4,4,3,3,3,2,3,1,4,4,4,4,4,4,2,4,4,3,2,2,3,3,3,3,2,2,4,4,4,3,3,3,4,3,2,3,2,2,3.07692307692308,3,4,5,2,3,2,3,2,2,3,5,5,3,3,36.2222222222222,36.2777777777778,2,36.25,1,6.11111111111111,5,1,-.577877562690461,.881752645783837,UCSB
1997,3,2,1,2,2,3,3,2,2,2,4,3,3,2,3,2,4.44444444444444,0,4.22222222222222,4.11111111111111,83,3.94444444444444,0,2.36363636363636,1,5,5,4,5,5,5,5,5,4,3,4,4,5,4,5,4,5,3,4,4,4,4,3,3,5,4,4,4,4,4,4,5,4,3,4,4,10:52:00,2.6,2,1,3,4,5,4,5,4,4,4,4,4,5,6,5,3,4,4,4,26,6.16666666666667,4.18181818181818,4,5,5,4,4,4,4,4,4,4,4,5,4,4,4,4,4,4,4,4,2,4,2,2,3,3,2,2,2,2,3,4,3,2,2.61538461538462,2,1,2,1, ,4,4,5, ,5,1,8,8,1, ,2,5,1, , ,3,2,5,2,Circle K, , , , ,4, , , , ,7,6,6,6,6,6,5,7,4,4,2,4,4,2,2,4,3,4,4,2,3,2,4,4,4,4,4,4,3,4,4,4,2,3,2,2,4,4,2,4,2,2,2,2,3,3,4,2,3,2,4,3,2,3,4,4,4,2,4,2,4,4,4,4,2,2,3.30769230769231,4,3,4,2,3,3,3,4,3,3,4,5,3,4,36.6111111111111,36.8888888888889,2,36.75,1,13.3333333333333,5,1,.820051685783284,.825203188690812,UCSB
1997,4,4,3,2,4,4,3,3,4,3,3,2,4,3,3,3,2.88888888888889,0,4,3,84,3.94444444444444, ,3.36363636363636,1,3,3,3,2,3,2,4,2,1,2,6,3,5,3,4,1,3,2,3,6,2,5,2,2,3,6,1,3,5,6,5,1,6,5,5,5, ,3,2, ,3,4,4,4,4,4,4,4,4,4,2,2,3,2,2,2,2,15,3.83333333333333,2.90909090909091,3,3,3,3,3,2,3,3,3,3,3,3,3,3,3,3,3,3,3,3,1,4,4,4,4,3,4,3,4,3,2,4,4,2,3.46153846153846,1,2,2,1, ,4,4,5, ,8,5,5,3,2,1,2,5,1, , ,1,1, ,1, , , , , , , , , , ,6,3,3,4,3,4,3,7,2,3,4,4,4,3,3,4,4,4,2,3,3,3,4,5,3,3,2,4,4,3,5,4,2,3,3,2,4,4,4,4,1,2,2,4,3,3,2,2,4,4,3,3,3,3,3,3,4,3,3,3,3,4,4,4,3,2,3,3,3,3,3,3,3,3,3,3,3,3,3,3,3,35.8888888888889,36.2222222222222,4,36.0555555555556,1,7.22222222222222,5,1,-.442594087031711,.825203188690812,UCSB
1997,2,5,1,3,1,2,5,2,4,2,2,1,2,3,2,2,5.55555555555556,0,4.77777777777778,4,84,3.88888888888889, ,2.63636363636364,1,6,5,7,7,7,7,5,6,3,5,2,3,7,6,6,6,7,5,7,5,6,1,5,2,3,4,2,6,2,6,5,4,4,4,1,3, ,2,2,1,3,5,4,5,5,5,5,5,4,5,2,3,5,4,4,2,4,17,5.66666666666667,3.54545454545455,5,4,3,5,2,2,4,3,4,4,3,5,5,4,5,4,4,3,1,5,2,2,2,4,3,4,1,1,2,3,5,4,5,4,3.07692307692308,2,2,2,1, ,4,2,5, ,3,3,4,2,1, ,2,6,3,1,6,2,1, ,1, , , , , , , , , , ,7,6,5,6,5,5,5,7,2,2,5,5,5,4,2,2,4,5,2,2,3,4,5,5,4,5,3,5,5,3,3,4,2,2,3,1,5,5,5,4,3,3,2,5,5,4,3,3,4,4,4,2,4,3,5,5,4,3,4,5,5,5,5,5,2,4,3.61538461538462,4,3,5,2,4,4,4,4,4,3,2,5,3,5,36.1666666666667,36.7222222222222,2,36.4444444444444,1,7.22222222222222,5,1,1.72194152350828,.768653731597787,UCSB
1995,2,2,2,2,2,2,2,2,3,2,2,3,2,2,3,2,2.61111111111111,0,3.88888888888889,3,56,3.88888888888889, ,2.09090909090909,1,2,2,2,2,4,2,2,5,4,2,2,2,2,2,3,2,2,5,5,2,6,5,4,4,5,4,4,3,3,3,2,3,5,5,3,4, ,2.4,2,6,3,5,5,5,5,5,4,2,2,2,5,5,6,5,3,1,4,24,4.16666666666667,3.18181818181818,4,5,4,4,5,1,1,1,3,2,5,2,3,3,4,3,2,2,4,4,2,2,4,2,2,2,2,3,2,4,4,4,4,2,2.84615384615385,2,2,2,1, ,4,4,5, ,8,4,6,5,1, ,2,7,3,1,8,1,1, ,1, , , , , , , , , , ,4,4,5,3,5,4,6,7,3,1,5,4,4,1,5,2,2,4,2,2,1,1,4,4,4,4,4,3,3,4,3,4,2,2,3,2,4,4,2,4,4,2,2,5,3,4,2,2,4,4,2,3,1,4,4,4,2,2,2,2,4,3,2,2,2,4,2.38461538461538,2,3,4,2,2,2,2,1,3,2,3,4,2,3,36.6666666666667,36.7777777777778,2,36.7222222222222,1,6.66666666666667,5,1,-.66806654646296,.768653731597787,UCSB
1997,2,4,1,3,2,2,4,4,2,2,2,2,4,1,2,1,6.05555555555556,0,5,4.44444444444444,57,3.83333333333333, ,2.54545454545455,1,6,7,6,7,7,7,7,7,5,5,5,6,6,6,4,6,7,5,5,4,6,5,5,3,2,5,4,4,2,2,3,3,3,2,5,6, ,2,2,2,4,5,5,5,5,5,5,5,5,5,4,6,5,5,4,6,1,18,6.5,3.63636363636364,4,5,4,4,2,4,4,4,3,3,3,3,5,4,3,5,5,5,5,5,2,2,2,3,2,4,1,2,1,2,5,1,4,4,2.53846153846154,2,2,2,1, ,4,4,5, ,8,3,8,8,2,1,2,8,1, , ,1,1, ,1, , , , , , , , , , ,7,6,7,7,7,5,5,7,3,1,3,2,5,3,3,4,4,3,2,1,2,3,2,4,5,5,5,5,4,3,4,4,1,3,3,4,3,4,4,2,2,4,4,5,5,1,3,1,3,4,1,4,4,2,4,4,4,5,5,1,3,4,3,2,1,4,2.69230769230769,2,3,4,3,2,2,3,3,2,1,3,5,3,4,37,37.1111111111111,2,37.0555555555556,1,6.11111111111111,5,1,2.12779195048453,.712104274504762,UCSB
1996,1,3,1,4,1,2,1,3,2,1,1,2,1,2,3,3,4.05555555555556,0,4,3.11111111111111,84,3.83333333333333, ,1.81818181818182,1,4,5,5,4,5,6,5,5,4,2,4,4,5,4,1,4,2,4,4,2,7,3,6,5,2,5,4,2,3,2,2,2,5,6,4,5, ,2.2,2,0,5,5,4,3,4,5,3,3,4,5,4,5,3,2,2,2,2,16,3.83333333333333,3.72727272727273,5,4,5,5,3,2,2,3,5,3,4,2,4,3,4,2,3,4,2,4,2,4,4,4,5,5,4,4,2,4,4,5,5,5,4.23076923076923,1,2,2,1, ,4,4,5, ,8,4,3,3,2,1,2,7,1, , ,1,2,2,1, , , , , , , , , , ,7,3,3,2,4,4,4,8,2,2,2,4,4,3,3,3,3,4,2,4,3,3,3,2,4,3,2,4,4,4,3,3,3,3,3,1,3,2,2,3,4,3,1,1,5,5,2,2,3,5,2,4,1,3,4,3,3,3,2,3,4,3,1,3,4,2,2.30769230769231,2,4,3,1,1,2,2,3,2,2,3,5,2,3,36.7222222222222,36.2222222222222,2,36.4722222222222,1,7.22222222222222,5,1,.504390242579535,.712104274504762,UCSB
1996,3,4,2,3,2,2,4,4,4,3,3,2,3,3,4,2,4,0,4,3.11111111111111,84,3.77777777777778, ,3.09090909090909,1,4,4,4,5,5,4,3,5,4,3,4,5,4,3,5,3,4,3,5,4,4,3,5,4,5,4,4,3,3,4,2,4,3,3,4,4, ,2.8,2,0,3,4,4,4,4,4,4,4,4,4,3,2,5,3,3,2,3,15,5.33333333333333,3.18181818181818,4,4,3,4,3,2,4,4,2,2,3,2,2,2,4,3,2,4,4,5,1,4,5,5,3,4,3,2,4,5,5,3,5,4,4,2,2,2,1, ,4,4,4,1,4,3,5,4,2,1,2,2,1, , ,1,1, ,1, , , , , , , , , , ,5,5,5,5,6,6,5,8,1,2,3,4,4,4,3,2,4,5,5,2,2,3,4,4,4,4,4,4,4,2,2,2,2,2,3,2,4,4,3,4,4,2,2,4,4,4,4,2,4,4,4,3,3,4,4,4,4,3,4,4,4,2,4,4,3,3,2.69230769230769,3,4,3,2,2,2,3,2,3,3,3,4,3,2,36.6111111111111,36.6111111111111,2,36.6111111111111,1,7.22222222222222,5,1,.459295750693286,.655554817411736,UCSB
1994,2,2,2,1,2,2,3,1,1,2,2,4,2,2,3,4,3.61111111111111,0,3.77777777777778,2.66666666666667,83,3.77777777777778, ,1.81818181818182,1,2,5,4,3,3,4,4,4,3,5,5,4,3,4,3,2,3,4,3,5,3,3,5,4,4,4,6,3,3,3,3,5,3,3,5,3,11:21:00,3,2,8,4,4,4,4,3,4,3,4,4,4,5,7,6,7,3,3,4,16,4.16666666666667,2.81818181818182,3,2,4,1,4,3,4,2,4,2,2,2,3,2,2,3,2,4,3,3,2,5,5,2,3,3,4,4,4,4,5,4,2,4,3.76923076923077,1,2,2,1, ,4,4,3,1,3,1,8,7,1, ,2,5,1, , ,2,1, ,1, , , , , , , , , , ,5,4,3,4,5,4,3,7,3,2,4,4,3,1,4,4,2,5,5,5,5,5,3,2,4,5,5,5,5,5,4,4,3,2,3,1,5,5,2,2,2,4,2,4,3,4,2,3,3,3,3,2,4,4,4,2,2,2,4,2,3,3,2,4,3,3,2.53846153846154,3,2,3,2,3,2,1,2,4,2,2,3,5,2,36.9444444444444,36.9444444444444,2,36.9444444444444,1,13.3333333333333,5,1,.143634307489537,.655554817411736,UCSB
1997,4,3,2,5,5,2,4,4,5,4,4,1,4,2,5,1,2.83333333333333,1,5,2.66666666666667,76,3.72222222222222,0,3.81818181818182,1,2,3,2,5,4,2,2,3,3,3,6,2,2,1,2,2,5,2,5,4,5,5,5,5,6,3,3,2,1,3,2,5,4,5,2,2,11:58:00,2.6,1,1,3,5,5,5,5,5,5,5,5,5,4,4,2,2,2,2,1,13,6.83333333333333,2.54545454545455,5,1,5,2,5,1,1,1,1,1,5,2,4,3,4,2,2,2,2,3,2,3,3,1,1,4,1,2,4,1,3,2,5,4,2.61538461538462,2,1,2,1, ,4,4,5, ,3,1,3,3,2,1,2,6,1, , ,3,1, ,1, , , , , , , , , , ,6,7,7,7,7,7,4,7,2,1,2,4,4,4,4,5,5,5,4,1,2,2,4,2,4,3,2,4,4,4,2,1,2,3,4,1,2,4,3,2,4,4,2,5,5,3,4,1,3,4,2,4,3,2,4,4,2,2,4,3,5,3,4,2,1,1,3.38461538461538,4,4,4,1,1,4,4,3,4,2,5,5,3,5,36.1666666666667,36.9444444444444,2,36.5555555555556,1,10,5,1,-.487688578917961,.599005360318711,UCSB
1996,2,4,1,4,2,2,4,2,1,4,3,2,2,1,4,3,4.5,0,4.77777777777778,3.22222222222222,80,3.72222222222222, ,2.63636363636364,1,4,4,4,5,5,5,3,6,4,3,6,6,5,5,3,3,7,3,5,5,5,3,3,4,1,4,6,4,3,5,3,1,4,4,3,4, ,2.4,2,1,5,5,5,5,5,5,4,4,5,5,2,3,4,2,2,2,2, ,5.83333333333333,3.27272727272727,5,4,5,5,2,1,3,2,4,1,4,4,4,2,4,4,3,1,2,5,2,4,4,1,2,4,2,4,2,5,5,2,3,2,3.07692307692308,1,2,2,1, ,4,4,5, ,3,2,8,3,1, ,2,4,1, , ,2,1, ,2,Climbing Team,-,--,-,-,6,0,0,0,0,6,6,6,4,6,7,6,7,1,2,4,4,4,2,2,3,2,4,3,2,1,3,5,3,5,4,4,4,4,5,5,4,3,4,3,2,4,4,2,4,2,1,2,2,3,4,2,2,4,2,5,2,2,3,4,4,4,4,4,3,4,4,5,2,2,4,3.15384615384615,4,2,5,2,4,3,3,3,3,3,4,5,1,4,36.5555555555556,37.1111111111111,2,36.8333333333333,1,8.33333333333333,5,1,.865146177669534,.599005360318711,UCSB
1997,3,4,3,3,4,4,4,4,4,3,2,2,3,2,3,1,4.33333333333333,0,4,4,83,3.72222222222222,1,3.45454545454545,1,4,5,4,6,4,6,5,4,3,4,4,4,4,5,5,3,4,4,6,1,5,1,6,7,3,3,3,3,3,6,4,4,3,3,1,5,11:57:00,2.2,2,2,3,4,4,4,4,4,4,4,4,4,4,3,2,1,1,1,1,9,5.5,4,4,4,4,4,4,4,4,4,4,4,4,4,4,4,4,4,4,4,4,4,2,1,1,2,2,1,1,2,2,2,2,2,2,1,1.61538461538462,1,1,2,1, ,4,2,1, ,2,2,1,2,1, ,2,1,1, , ,2,1, ,1, , , , , , , , , , ,5,7,7,7,5,2,3,6,1,5,3,4,4,2,2,5,5,5,4,2,1,2,4,3,4,4,1,4,1,5,5,2,3,4,3,2,2,2,2,4,1,3,2,4,4,4,2,2,4,4,4,2,4,4,4,4,2,4,2,5,4,4,4,4,5,5,3,4,4,4,2,2,3,2,4,2,2,4,4,2,4,36.7222222222222,37.1111111111111,2,36.9166666666667,1,13.3333333333333,5,1,.729862702010784,.599005360318711,UCSB
 ,4,4,4,2,4,4,4,4,4,4,4,2,4,2,4,2,4.77777777777778,3,4,1,72,3.66666666666667, ,3.81818181818182,2,5,5,5,5,5,5,5,5,3,5,3,5,5,5,5,5,5,5,5,3,5,3,5,5,5,3,3,3,3,3,3,5,3,3,3,3, ,2.8,2,33,3,4,4,4,4,4,4,4,4,4,5,8,1,8,7,7,7,21,1,1,1,1,1,1,1,1,1,1,1,1,1,1,1,1,1,1,1,1,1,1,2,5,5,5,5,1,5,1,5,5,1,5,5,1,3.76923076923077,3,2,2,1, ,4,4,5, ,3,3,3,5,2,3,2,4,1, , ,2,2,3,1, , , , , , , , , , ,1,1,1,1,1,1,1,8,2,5,5,5,5,5,5,5,5,5,5,5,5,5,5,5,5,5,5,5,5,5,5,5,5,5,5,5,5,5,5,5,5,5,5,5,5,5,5,5,5,5,5,5,5,5,5,5,5,5,5,5,5,5,5,5,5,5,3.15384615384615,1,1,1,5,5,5,5,1,5,5,1,1,5,1,35.5555555555556,35.5555555555556,3,35.5555555555556,1,10.5555555555556,5,1,1.09061863710078,.542455903225686,UCSB
1996,2,4,2,4,2,3,2,4,2,2,2,2,4,2,4,2,4.16666666666667,0,2.88888888888889,4.88888888888889,64,3.66666666666667, ,2.63636363636364,1,6,5,3,5,3,6,7,4,3,2,3,5,3,2,5,5,6,2,6,5,3,4,3,2,4,3,4,2,4,6,2,4,3,2,3,6, ,2.8,2,0,2,4,2,4,2,3,3,3,2,3,3,3,3,2,2,4,1,22,5,4.45454545454545,5,5,5,4,5,3,3,5,4,5,5,5,5,4,5,5,5,5,5,5,2,2,2,2,2,2,2,3,4,4,2,3,3,3,2.61538461538462,2,2,2,1, ,4,4,5, ,2,2,6,5,1, ,2,8,3,1,8,1,1, ,1, , , , , , , , , , ,5,5,6,4,5,5,5,7,3,1,4,2,5,3,5,4,4,2,4,3,2,2,5,3,3,2,2,2,2,3,2,4,3,3,4,5,3,4,4,2,3,4,2,2,3,2,2,4,3,2,4,3,2,4,3,4,2,2,2,4,3,3,2,3,1,4,3.46153846153846,5,3,4,2,3,3,3,5,3,5,3,5,2,4,36.8888888888889,36.8888888888889,2,36.8888888888889,1,6.11111111111111,5,1,.594579226352035,.542455903225686,UCSB
1996,4,4,1,4,4,2,4,4,4,4,3,3,1,2,4,3,2.33333333333333,4,4.33333333333333,2.66666666666667,84,3.5, ,3.45454545454545,1,3,2,2,2,4,2,3,2,5,2,2,2,2,2,2,2,2,1,3,3,4,5,2,2,3,3,6,3,2,5,3,3,5,5,3,3, ,2.6,2,2,3,5,5,4,5,5,5,3,3,4,3,2,2,2,2,4,2, ,5.5,3.09090909090909,4,4,4,4,4,1,2,2,2,3,4,2,4,1,4,2,1,2,4,4,2,1,3,4,2,2,2,1,2,2,2,3,4,2,2.30769230769231,2,2,2,1, ,4,2,5, ,4,2,6,6,1, ,2,5,1, , ,1,1, ,2,Support After Intimate Partner Abuse,n/a,n/a,n/a,n/a,6,0,0,0,0,6,6,5,6,5,5,5,7,3,4,2,2,4,2,2,4,4,5,2,2,1,3,4,4,4,2,3,3,3,4,2,2,2,2,2,1,4,5,4,4,2,2,1,3,4,2,2,2,4,4,2,4,2,4,4,4,2,2,4,2,2,2,4,2,2,4,3.30769230769231,3,2,4,2,4,4,2,4,2,4,4,5,4,4,36.6111111111111,36.5,2,36.5555555555556,1,7.22222222222222,5,1,-.89353900589421,.372807531946611,UCSB
1997,3,4,1,3,4,4,4,4,2,3,2,1,1,1,4,3,4.5,0,4.11111111111111,2.88888888888889,80,3.5, ,3.09090909090909,1,5,5,5,3,6,6,6,4,3,5,2,2,5,4,6,4,5,5,5,4,6,3,6,6,6,2,2,2,3,2,2,4,3,3,2,2, ,2,2,2,4,5,5,4,5,5,3,2,4,4,2,2,2,1,1,1,1,12,2.33333333333333,2,2,2,3,2,1,2,2,2,2,2,2,2,4,1,4,3,2,4,2,4,1,2,2,3,3,4,2,3,2,3,4,2,3,4,2.84615384615385,1,2,2,1, ,4,2,5, ,3,1,7,7,1, ,2,5,1, , ,1,1, ,1, , , , , , , , , , ,4,2,3,2,2,1,3,6,2,3,4,5,4,1,4,3,2,5,3,2,2,4,3,4,4,3,2,4,4,2,3,2,4,4,2,1,4,5,4,4,2,5,3,3,4,4,2,3,4,4,3,4,2,3,4,4,3,2,4,3,3,4,2,4,2,3,3.07692307692308,3,3,2,3,5,3,4,3,3,3,2,2,3,3,36,35.4444444444444,2,35.7222222222222,1,8.33333333333333,5,1,.865146177669534,.372807531946611,UCSB
1997,2,2,2,2,3,2,5,4,2,2,2,2,2,4,4,4,3.77777777777778,0,5,2,64,3.44444444444444, ,2.54545454545455,1,2,2,2,2,6,5,4,2,2,6,6,2,5,2,6,6,6,2,2,2,6,2,6,6,6,2,2,2,2,2,2,6,4,6,2,2, ,3.2,2,0,4,5,5,5,5,5,5,5,5,5,3,3,4,1,3,3,3,11,4.66666666666667,2,2,2,2,2,2,2,2,2,2,2,2,2,2,2,2,2,2,2,2,2,2,4,4,4,4,2,2,2,2,4,4,2,4,4,3.23076923076923,2,2,2,1, ,4,2,4,1,2,2,2,2,1, ,2,8,1, , ,3,1, ,1, , , , , , , , , , ,3,5,5,5,5,5,5,7,2,5,4,4,3,2,2,2,2,4,2,2,3,4,2,2,4,4,4,4,4,4,4,4,2,4,2,2,2,2,2,2,4,3,2,4,4,4,4,4,4,4,2,4,4,4,2,4,2,3,3,2,2,4,4,4,4,4,2.69230769230769,2,3,3,4,2,2,3,2,3,3,3,4,3,2,36.5,37,1,36.75,1,6.11111111111111,5,1,.278917783148286,.316258074853586,UCSB
1995,4,4,2,4,2,2,4,2,2,2,2,4,4,2,4,2,4.44444444444444,0,4.11111111111111,3.33333333333333,80,3.44444444444444, ,2.72727272727273,1,4,5,4,6,6,6,2,5,5,2,5,4,4,2,5,5,6,4,3,3,3,4,2,4,2,4,4,3,4,4,3,4,3,4,4,4, ,3.2,2,3,2,4,4,4,4,4,4,4,4,5,3,4,4,2,2,2,1, ,5.5,3.09090909090909,2,3,2,4,2,2,4,4,3,4,4,4,4,4,4,3,2,4,2,3,2,2,1,2,4,2,1,1,1,2,3,4,4,2,2.23076923076923,2,2,2,1, ,4,4,2,1,8,1,8,6,1, ,1, ,1, , ,1,1, ,2,Lacrosse team,NA,NA,NA,NA,7,0,0,0,0,5,6,4,5,7,6,6,7,2,4,2,4,4,1,2,2,4,4,4,2,2,3,4,4,4,4,4,3,2,3,3,2,3,4,3,2,3,4,4,5,2,4,2,3,4,3,3,2,4,2,2,4,2,4,2,4,2,3,2,4,4,4,3,2,2,4,3.15384615384615,3,3,3,3,3,3,4,2,4,4,2,4,3,4,36.6111111111111,36.3333333333333,2,36.4722222222222,1,8.33333333333333,5,1,.820051685783284,.316258074853586,UCSB
1997,3,3,2,3,2,2,2,2,2,3,2,2,2,2,3,3,3.5,0,3.22222222222222,3.33333333333333,54,3.44444444444444, ,2.36363636363636,1,3,4,4,3,4,5,4,5,4,4,4,4,3,2,2,3,3,2,3,3,3,3,5,2,3,4,5,4,4,3,3,3,4,5,1,4, ,2.4,2,0,4,4,3,3,4,4,3,2,2,4,4,5,6,3,4,3,3,19,3.66666666666667,2.90909090909091,4,3,4,4,2,2,2,2,2,4,3,3,5,2,5,3,3,2,4,3,2,2,2,2,2,3,4,3,2,2,3,3,3,3,2.61538461538462,2,2,2,1, ,4,4,5, ,4,5,5,5,1, ,2,8,1, , ,4,1, ,1, , , , , , , , , , ,3,4,5,4,3,3,3,6,3,1,4,3,5,4,4,3,3,4,2,1,3,3,1,2,4,4,4,4,3,3,3,3,2,2,3,3,3,3,3,1,3,3,2,4,3,3,2,3,3,2,4,3,4,2,3,3,4,3,2,2,2,3,2,3,2,4,3.07692307692308,3,4,4,3,2,3,3,3,3,3,4,4,2,3,36.7222222222222,36.7222222222222,2,36.7222222222222,1,6.66666666666667,5,1,.053445323717037,.316258074853586,UCSB
1997,2,2,2,1,2,2,3,1,1,2,2,2,1,1,2,2,2.11111111111111,0,5,3.88888888888889,58,3.33333333333333,.25,1.81818181818182,1,1,2,1,1,1,3,2,3,1,5,2,2,2,3,1,1,5,2,3,3,5,3,2,3,3,2,4,1,3,3,2,4,6,7,2,4,10:49:00,1.6,2,0,3,5,5,5,5,5,5,5,5,5,5,7,6,5,7,6,2,24,4.5,3.54545454545455,5,5,4,4,2,1,4,2,5,2,5,4,4,2,5,5,4,2,5,4,2,2,4,3,1,2,3,3,2,3,4,1,2,2,2.46153846153846,2,1,2,1, ,4,4,5, ,8,2,8,8,2,1,2,4,1, , ,8,1, ,2, , , , , , , , , , ,3,5,5,6,4,4,4,7,3,2,5,4,4,2,2,2,5,4,2,2,3,4,5,4,5,4,4,3,5,5,3,4,3,2,3,2,4,4,4,3,2,4,2,5,4,2,3,3,4,3,3,4,2,2,4,4,4,4,4,1,4,4,4,4,3,2,2.76923076923077,3,4,4,2,3,2,2,2,3,3,3,5,2,3,37.2777777777778,36.7777777777778,4,37.0277777777778,1,10,5,1,-1.07391697343921,.203159160667535,UCSB
1996,2,2,3,2,2,2,2,3,4,2,2,2,1,3,2,3,2.33333333333333,0,4.44444444444444,2.44444444444444,82,3.27777777777778, ,2.36363636363636,1,2,2,2,2,2,2,2,2,2,1,2,4,2,2,4,3,4,2,3,2,5,3,3,3,3,3,2,2,3,3,3,2,6,7,3,3,11:25:00,2.2,2,0,4,4,5,5,5,5,4,4,4,4,4,4,3,4,2,4,3,17,3.66666666666667,2.54545454545455,4,4,3,3,2,2,1,1,2,2,4,2,4,1,4,1,2,3,3,2,1,4,5,4,4,4,1,4,2,4,4,5,5,5,3.92307692307692,1,2,2,1, ,4,2,3,2,3,1,5,1,1, ,2,1,3,1,8,1,1, ,1, , , , , , , , , , ,4,4,4,4,3,3,2,8,1,2,2,2,4,3,3,3,4,2,2,3,3,3,4,4,2,3,4,3,3,3,3,3,2,2,2,4,2,3,4,2,2,4,4,2,3,4,2,2,4,4,4,4,2,4,2,4,3,3,1,2,4,3,4,4,2,3,2,4,2,3,2,2,2,2,2,1,2,2,5,1,1,37.1666666666667,37.0555555555556,2,37.1111111111111,1,12.2222222222222,5,1,-.89353900589421,.14660970357451,UCSB
 ,5,5,5,2,5,5,5,4,3,4,5,2,5,1,3,1,4.61111111111111,1,4,5,51,3.27777777777778, ,4.36363636363636,1,5,4,6,4,4,7,4,4,2,6,4,4,4,5,4,5,5,6,3,3,3,4,4,3,4,3,2,3,3,3,2,2,5,4,4,4, ,2.4,2,1,4,5,4,4,4,4,3,3,4,5,5,5,4,2,3,3,4,13,7,4.45454545454545,5,5,5,5,5,1,4,4,5,5,5,5,5,5,5,5,5,5,5,5,1,3,3,2,2,4,1,2,3,2,3,3,5,3,2.76923076923077,2,2,2,1, ,4,4,4,1,7,1,5,5,1, ,2,8,1, , ,1,1, ,1, , , , , , , , , , ,7,7,7,7,7,7,7,7,3,1,5,4,4,1,5,5,5,5,5,1,3,5,5,3,5,5,5,3,3,3,3,3,4,4,3,1,5,5,5,3,5,5,1,4,4,3,4,1,3,5,3,4,4,4,4,4,4,4,1,1,5,1,1,1,1,3,3.46153846153846,4,5,4,3,3,3,3,4,3,3,4,3,2,4,36.2111111111111,36.7777777777778,2,36.4944444444444,1,6.66666666666667,5,1,.955335161442034,.14660970357451,UCSB
1996,3,4,2,3,2,2,4,2,5,4,5,2,1,1,2,2,4.72222222222222,0,3.44444444444444,2.66666666666667,64,3.27777777777778, ,3.27272727272727,1,4,4,4,6,5,5,7,6,4,4,6,5,6,2,7,6,2,2,2,2,6,3,4,2,1,4,5,2,3,2,2,3,6,6,2,4, ,1.6,2,1,2,4,4,3,5,4,3,2,3,3,5,4,1,2,3,3,3, ,3.5,2.27272727272727,4,3,4,3,1,1,2,1,3,1,2,1,4,2,4,1,1,4,3,4,2,2,1,1,3,3,1,2,1,2,2,3,4,3,2.15384615384615,2,2,2,1, ,4,4,5, ,4,3,6,5,1, ,2,8,1, , ,1,1, ,2,PPGA,0,0,0,0,5,0,0,0,0,5,3,3,2,5,3,5,7,3,2,2,4,4,1,5,5,2,5,4,2,4,3,5,5,2,4,3,5,4,3,2,2,2,4,2,1,5,4,3,3,2,5,2,4,4,4,1,2,4,5,4,4,3,4,2,4,4,3,4,5,5,2,3,4,2,4,3.69230769230769,4,3,4,3,3,4,4,4,4,4,1,5,5,5,36.3888888888889,36.3333333333333,2,36.3611111111111,1,6.11111111111111,5,1,1.04552414521453,.14660970357451,UCSB
1994,1,3,1,2,1,2,2,3,1,1,2,4,3,1,1,2,4.44444444444444,0,4.55555555555556,3.44444444444444,80,3.22222222222222, ,1.72727272727273,1,6,5,4,6,7,2,2,7,2,6,2,7,1,5,5,7,5,1,2,5,3,3,4,2,2,4,4,3,3,1,3,2,4,3,5,5, ,2.2,2,5,2,5,2,5,5,4,5,5,5,5,1,3,4,2,2,2,2,22,4.5,3.09090909090909,4,4,4,5,4,1,1,1,4,2,4,4,5,2,5,4,2,3,4,2,1,1,1,4,1,2,1,1,1,1,1,1,3,1,1.46153846153846,1,2,1,1, ,3,3,4,1,3,1,5,3,1, ,2,3,3,1,7,2,2,3,1, , , , , , , , , , ,4,6,5,6,3,3,4,9,1,2,2,4,4,2,4,3,3,4,3,1,1,1,5,4,4,2,2,2,1,3,4,1,4,4,4,2,5,5,5,3,5,4,3,4,2,4,5,2,3,4,4,4,2,2,4,4,5,3,3,1,4,4,3,5,3,2,3.76923076923077,4,4,5,2,4,4,2,4,5,4,4,4,3,4,36.4444444444444,36.8333333333333,2,36.6388888888889,1,8.33333333333333,5,1,.820051685783284,.090060246481485,UCSB
1995,2,2,1,2,1,1,3,2,3,2,1,3,2,1,2,2,2.88888888888889,1.5,3.77777777777778,2.77777777777778,86,3.22222222222222, ,1.81818181818182,1,4,2,3,3,2,4,4,3,4,2,3,2,2,2,2,4,4,2,4,3,5,2,2,3,3,3,2,3,3,5,2,4,3,5,2,4,12:03:00,2,1,1.5,2,4,4,4,4,5,4,2,4,3,5,6,5,3,3,2,3,33,5.16666666666667,2.63636363636364,4,3,3,2,3,1,2,2,3,2,4,4,4,2,3,2,1,2,3,4,1,4,3,4,3,3,2,3,2,3,4,5,5,3,3.38461538461538,2,2,2,1, ,4,1,4,1,8,2,8,7,1, ,2,8,3,1,8,6,1, ,2,Gaucho Automative Society,Cars and Chill, , , ,4,2, , , ,5,6,6,5,4,5,5,8,4,2,2,4,4,4,2,2,4,4,2,2,3,3,4,3,5,5,5,4,4,4,3,2,1,1,2,3,2,3,3,2,2,2,1,1,4,4,3,2,2,3,2,2,3,2,4,4,3,3,4,3,4,3,4,3,4,4,2.15384615384615,2,2,3,3,2,2,2,1,2,3,2,4,2,2,36.1111111111111,37.5555555555556,2,36.8333333333333,1,12.2222222222222,5,1,-.442594087031711,.090060246481485,UCSB
1997,2,4,3,2,3,3,3,2,4,3,2,2,4,2,3,2,3.72222222222222,0,4,3,84,3.16666666666667, ,2.81818181818182,1,5,4,3,4,5,4,4,4,4,2,3,4,4,3,4,4,4,2,4,4,4,2,3,4,4,2,2,3,3,3,4,3,4,4,2,2, ,2.6,2,0,5,4,4,4,4,4,4,4,4,4,1,3,4,3,3,3,3,13,4,3.09090909090909,4,3,4,4,4,2,2,2,4,2,3,4,3,2,3,3,2,2,4,4,2,2,3,2,2,3,2,3,2,2,4,3,2,3,2.53846153846154,2,2,2,1, ,4,4,1, ,2,2,4,3,1, ,2,8,1, , ,3,1, ,1, , , , , , , , , , ,5,4,4,4,4,3,4,6,2,4,2,4,2,4,3,4,4,4,4,2,2,4,4,4,4,4,3,4,4,4,4,4,2,2,3,1,4,4,4,4,4,2,2,4,4,5,2,2,4,4,4,3,3,2,4,4,4,3,4,2,4,3,4,4,2,4,2.38461538461538,2,3,3,2,3,2,3,2,2,2,3,4,2,2,36.7222222222222,36.7222222222222,2,36.7222222222222,1,7.22222222222222,5,1,.233823291262036,.0335107893884596,UCSB
1994,4,2,3,3,3,2,4,2,3,4,2,2,4,1,2,1,3.55555555555556,0,3.55555555555556,2.88888888888889,65,3.16666666666667, ,2.90909090909091,1,4,3,4,4,4,4,3,4,3,3,3,4,4,4,3,3,4,3,3,2,4,2,3,5,3,3,3,3,3,3,3,5,3,2,3,4, ,2,2,2,2,3,4,4,4,4,3,2,4,4,4,4,5,4,4,4,4,27,4.16666666666667,3,4,3,4,2,4,2,4,2,2,2,4,2,4,2,4,2,2,4,2,4,2,2,2,4,4,4,1,3,2,2,3,4,3,3,2.84615384615385,2,2,2,1, ,4,4,5, ,5,5,8,8,2,8,2,3,1, , ,1,1, ,1, , , , , , , , , , ,6,3,5,4,4,3,5,7,3,2,4,4,4,3,3,3,3,4,4,2,3,3,4,4,4,4,4,4,4,2,4,3,2,2,2,4,3,4,4,2,2,2,3,2,3,2,4,3,3,3,4,2,3,2,3,4,3,4,3,4,3,4,3,4,2,4,3.23076923076923,4,2,5,3,3,3,4,4,2,3,3,5,2,4,36.6111111111111,36.4444444444444,2,36.5277777777778,1,9.44444444444444,5,1,.0985398156032866,.0335107893884596,UCSB
1997,2,2,2,2,2,3,2,2,2,2,2,2,4,2,2,4,3.16666666666667,0,3.33333333333333,2.66666666666667,69,3.16666666666667, ,2.09090909090909,1,2,5,3,5,3,2,5,4,5,3,2,2,3,2,4,2,3,2,2,3,6,3,3,4,2,2,3,3,3,5,2,3,3,4,3,3,10:27:00,2.8,2,0,3,4,4,4,4,4,3,2,3,2,4,6,7,4,4,4,4,11,2.83333333333333,2.45454545454545,4,2,3,2,3,2,2,2,2,1,4,2,4,3,2,2,1,4,3,3,2,5,2,3,3,4,3,4,2,3,3,2,4,4,3.23076923076923,2,2,2,1, ,4,2,4,1,4,4,3,2,1, ,2,5,1, , ,1,1, ,1, , , , , , , , , , ,4,3,2,4,2,2,2,7,2,2,4,4,4,4,4,5,5,5,4,2,2,2,4,3,4,2,2,3,3,4,3,3,2,2,3,3,4,4,4,4,2,4,2,4,4,4,3,2,2,3,2,2,2,2,4,4,2,2,3,4,4,2,2,2,2,2,2.46153846153846,3,2,2,2,2,2,2,3,2,3,4,4,3,2,36.7777777777778,37.1666666666667,2,36.9722222222222,1,8.33333333333333,5,1,-.217121627600462,.0335107893884596,UCSB
1997,2,2,1,2,1,1,2,2,2,2,2,2,3,2,2,2,3.44444444444444,0,4.55555555555556,3.11111111111111,68,3.11111111111111, ,1.72727272727273,1,3,1,5,3,5,5,1,2,3,5,2,4,5,1,2,7,6,2,3,3,2,3,3,2,2,3,5,3,2,5,2,2,3,5,5,3, ,2.2,2,0,4,5,5,5,5,5,4,3,5,4,5,6,5,1,4,4,4,12,7,2.63636363636364,4,4,4,4,2,1,1,1,4,1,3,3,3,3,2,4,3,2,4,4,1,2,1,5,5,4,1,1,1,3,3,2,4,3,2.69230769230769,2,2,2,1, ,4,4,5, ,1, ,6,6,1, ,2,5,1, , ,1,1, ,1, , , , , , , , , , ,7,7,7,7,7,7,7,5,3,1,3,4,4,4,2,2,5,4,2,1,3,4,4,3,4,3,3,3,3,4,3,4,3,4,3,3,3,2,2,2,3,4,2,4,3,2,2,3,3,4,4,4,3,3,3,4,4,3,4,2,4,4,3,3,2,4,3.07692307692308,3,3,5,3,3,3,2,4,2,4,2,5,2,4,36.6666666666667,36.8888888888889,2,36.7777777777778,1,5.55555555555556,5,1,.00835083183078729,-.0230386677045653,UCSB
1995,2,2,1,2,2,4,3,2,3,2,2,2,2,2,4,2,3.16666666666667,0,4.11111111111111,3.55555555555556,64,3.11111111111111, ,2.27272727272727,2,1,5,5,5,5,1,2,3,5,1,2,4,2,1,5,5,4,1,2,2,4,3,3,4,2,2,4,3,3,3,2,3,6,5,2,3, ,2.4,2,8,2,5,4,5,5,5,3,3,4,3,5,5,3,4,2,3,1, ,4.83333333333333,3.81818181818182,4,4,4,4,4,4,4,4,2,4,4,4,4,4,4,1,2,4,4,5,1,2,2,3,2,4,2,3,3,2,4,4,4,2,2.84615384615385,2,2,2,1, ,4,2,5, ,3,1,8,4,1, ,2,8,1, , ,1,1, ,2,Sorority,N/A,N/A,N/A,N/A,7,0,0,0,0,5,5,5,5,5,4,4,7,1,2,2,2,4,4,3,3,4,2,2,1,1,1,4,3,4,3,3,5,3,2,4,3,1,2,1,4,1,2,2,1,5,1,2,5,4,4,2,2,3,2,2,2,2,4,2,2,2,2,3,2,4,2,4,2,2,4,3.23076923076923,4,3,4,3,3,3,3,3,4,3,4,4,2,3,36.7222222222222,36.7222222222222,2,36.7222222222222,1,6.11111111111111,5,1,-.217121627600462,-.0230386677045653,UCSB
1995,1,2,1,1,1,1,3,2,4,3,1,1,1,2,1,1,5.27777777777778,0,4.77777777777778,1.88888888888889,71,3.05555555555556, ,1.81818181818182,1,6,5,7,7,7,7,5,6,2,6,4,3,4,7,5,7,6,1,4,3,5,2,1,1,1,2,3,4,3,5,3,1,4,5,1,7, ,1.2,2,0,4,4,5,5,5,5,5,4,5,5,4,6,7,8,4,5,5,41,6.83333333333333,2.63636363636364,5,3,4,4,4,1,1,1,1,1,4,1,1,1,3,4,1,1,4,1,2,2,4,4,4,2,4,5,4,2,5,4,5,5,3.84615384615385,2,2,2,1, ,4,4,5, ,1, ,6,5,2,3,2,8,3,8,8,5,1, ,2,Rec Cen, , , , ,60, , , , ,7,7,7,6,7,7,6,7,4,4,3,4,4,1,3,2,2,4,2,2,4,4,3,1,5,5,5,4,5,5,4,5,4,1,3,4,2,4,4,2,4,2,3,4,5,5,2,1,4,4,2,5,4,4,2,5,4,4,4,4,5,5,2,4,1,5,2.69230769230769,3,4,4,2,2,2,3,3,2,1,3,5,3,3,36.2777777777778,36.3888888888889,2,36.3333333333333,1,7.77777777777778,5,1,1.49646906407703,-.0795881247975907,UCSB
 ,4,4,3,3,4,4,4,3,3,4,4,1,3,2,3,2,4.55555555555556,0,3.88888888888889,2.88888888888889,86,3.05555555555556, ,3.63636363636364,1,6,5,6,5,6,4,4,5,4,6,4,4,4,3,3,5,4,4,4,2,5,3,4,3,3,3,2,2,2,3,2,3,3,4,2,5,10:59:00,2.2,2,5,2,3,4,4,4,4,4,4,4,4,5,6,5,3,5,5,5,16,4.66666666666667,2.72727272727273,3,4,3,4,2,2,2,2,2,4,2,4,4,1,4,2,2,3,2,4,1,2,2,3,2,3,1,2,2,3,4,3,2,3,2.46153846153846,2,2,1,2,2,4,2,4,1,4,3,4,2,1, ,2,2,3,1,2,2,1, ,1, , , , , , , , , , ,7,4,4,3,5,5,5,9,1,2,3,4,4,2,4,5,5,5,4,3,3,3,4,4,3,4,4,4,2,3,4,3,2,4,3,3,3,4,2,4,4,4,1,1,2,3,4,3,2,2,4,3,4,3,4,4,4,4,4,3,4,3,3,2,3,4,3.15384615384615,3,3,4,3,3,3,2,3,3,3,4,4,3,4,36.1111111111111,37.1111111111111,2,36.6111111111111,1,12.2222222222222,5,1,.910240669555784,-.0795881247975907,UCSB
1995,4,5,1,4,5,5,3,5,5,3,4,1,5,3,4,1,6.33333333333333,0,5,3.55555555555556,80,3, ,4,1,7,7,7,7,7,7,7,7,1,7,1,7,7,7,7,7,7,7,7,1,7,1,7,7,7,1,1,1,1,1,1,7,1,1,1,1, ,2.8,2,0,4,5,5,5,5,5,5,5,5,5,4,3,5,5,5,6,5,15,5.66666666666667,2.45454545454545,5,1,5,5,1,1,1,1,1,1,5,2,5,2,5,5,1,2,5,5,2,1,2,1,1,1,1,1,1,1,5,1,3,1,1.53846153846154,2,2,2,1, ,4,2,5, ,8,5,6,6,1, ,2,8,1, , ,1,1, ,1, , , , , , , , , , ,7,6,5,5,5,6,7,6,3,5,2,2,5,5,1,2,5,2,5,1,4,5,5,5,5,5,5,1,1,5,4,4,5,4,5,5,1,5,5,1,5,5,5,5,5,5,5,5,5,5,5,5,5,5,5,5,5,5,5,1,5,5,5,5,5,5,3.61538461538462,5,4,5,1,1,2,1,5,4,5,4,5,5,5,36.5555555555556,36.6111111111111,2,36.5833333333333,1,8.33333333333333,5,1,2.35326440991578,-.136137581890616,UCSB
1996,2,2,1,1,3,2,2,2,1,2,1,3,4,2,4,2,3.33333333333333,0,4.33333333333333,2.44444444444444,74,3, ,1.72727272727273,1,2,3,2,4,3,4,5,5,3,3,2,5,2,2,4,5,3,3,2,4,5,3,3,3,2,4,3,3,3,2,2,3,3,3,3,3, ,3,2,0,4,5,5,5,5,5,4,3,4,3,5,5,5,4,4,2,3,37,2.83333333333333,2.54545454545455,4,4,4,3,2,1,1,4,1,1,3,1,4,2,4,1,1,3,2,4,1,3,3,4,3,3,4,3,2,3,4,2,4,4,3.23076923076923,2,2,2,1, ,4,4,4,1,5,1,4,3,1, ,2,5,1, , ,4,1, ,2,Volleyball,Soccer,health and wellness,Writing group,Math help group,5,7,5,4,2,4,3,3,2,3,2,2,8,2,2,4,4,5,2,4,4,3,4,3,1,3,2,4,4,4,5,5,5,5,3,4,3,2,3,2,4,2,4,3,2,3,3,1,4,4,2,2,3,4,3,3,2,3,4,4,4,4,4,4,3,5,4,4,4,2,5,2.30769230769231,2,2,3,2,2,2,2,3,2,3,1,5,3,3,36.3333333333333,36.4444444444444,2,36.3888888888889,1,11.1111111111111,5,1,-.0818381519417124,-.136137581890616,UCSB
1997,4,4,4,4,4,2,4,4,4,3,4,2,2,3,2,2,4.38888888888889,0,3,4.88888888888889,87,3, ,3.72727272727273,1,3,2,2,7,6,2,2,5,4,6,3,7,2,6,5,6,5,6,3,7,5,1,5,1,1,6,3,3,2,1,3,1,3,3,2,4, ,2.2,2,0,2,3,3,3,3,3,3,3,3,3,4,5,4,4,4,4,4,17,3.83333333333333,5,5,5,5,5,5,5,5,5,5,5,5,5,5,5,5,5,5,5,4,5,1,1,1,4,2,2,1,4,1,1,3,2,1,3,2,2,2,2,1, ,4,4,5, ,4,4,3,3,1, ,2,4,1, , ,5,1, ,1, , , , , , , , , , ,3,4,4,4,4,4,4,6,2,1,2,2,5,1,4,5,3,3,2,2,4,4,3,4,5,5,5,5,4,3,4,3,1,2,4,4,1,2,1,2,2,1,5,4,3,4,1,2,4,4,3,2,5,1,2,5,5,4,4,2,5,4,5,5,2,1,4.15384615384615,4,2,5,5,5,4,4,5,4,5,2,2,4,5,36.1111111111111,37.2222222222222,2,36.6666666666667,1,8.33333333333333,5,1,.774957193897035,-.136137581890616,UCSB
1995,4,4,3,3,4,4,4,4,2,4,4,2,1,1,3,2,4.5,0,2.11111111111111,3.55555555555556,64,3, ,3.63636363636364,1,6,5,2,5,4,6,2,5,5,3,2,6,4,5,5,5,6,5,3,3,5,2,3,3,2,2,3,2,1,2,2,5,5,4,2,5, ,1.8,2,0,4,2,2,2,2,1,2,2,2,4,5,7,7,6,6,6,5,26,4.16666666666667,3.54545454545455,4,4,4,4,2,3,2,4,4,4,4,4,4,3,4,4,3,2,4,4,1,2,3,5,4,4,2,3,4,3,5,3,5,3,3.53846153846154,2,2,2,1, ,4,2,5, ,4,3,7,7,2,6,2,8,1, , ,5,2,2,1, , , , , , , , , , ,4,3,6,3,5,4,4,8,5,1,3,2,4,4,2,3,3,3,2,1,4,3,4,3,4,4,4,4,2,4,5,1,2,5,3,3,1,2,4,1,4,2,2,2,2,4,2,2,4,3,4,4,2,3,4,4,2,3,5,2,5,5,5,5,4,4,3.30769230769231,4,4,5,2,4,3,2,4,4,3,3,5,1,4,36.6111111111111,36.2222222222222,2,36.4166666666667,1,6.11111111111111,5,1,.865146177669534,-.136137581890616,UCSB
1995,2,2,2,4,2,2,2,2,2,2,2,4,2,4,4,2,5.33333333333333,0,4,2.77777777777778,80,2.94444444444444, ,2.18181818181818,2,5,5,5,7,5,5,7,5,5,6,1,7,6,5,5,7,6,4,5,1,6,2,5,3,3,3,3,2,1,3,3,3,2,2,3,3, ,3.2,2,0,4,4,4,4,4,4,4,4,4,4,5,6,7,5,5,5,5,13,6.33333333333333,2.72727272727273,4,4,4,4,4,2,1,1,1,1,4,2,2,2,5,3,3,3,3,2,1,2,2,2,2,2,2,2,2,2,4,2,2,2,2.15384615384615,2,2,2,1, ,4,4,5, ,2,1,5,5,2,1,2,3,1, , ,1,1, ,1, , , , , , , , , , ,7,7,6,6,6,6,6,7,2,2,4,4,4,4,2,2,4,4,2,2,4,4,4,4,4,4,2,4,2,4,5,5,1,2,1,2,2,4,4,2,4,2,2,4,4,4,4,4,4,4,2,2,4,4,4,4,4,4,4,4,4,4,4,4,2,4,2.92307692307692,4,4,4,2,2,2,2,4,2,1,4,4,2,5,35.7222222222222,35.7777777777778,2,35.75,1,8.33333333333333,5,1,1.54156355596328,-.192687038983641,UCSB
1997,2,4,2,4,4,2,3,3,2,4,4,3,1,2,2,4,4.11111111111111,0,5,3.11111111111111,82,2.88888888888889, ,3.09090909090909,1,5,5,5,3,3,6,4,5,5,2,5,2,4,3,6,2,7,2,4,2,4,3,2,2,5,3,3,3,2,3,2,3,3,3,3,2,11:23:00,2.4,2,0,4,5,5,5,5,5,5,5,5,5,4,4,3,4,4,5,3,21,6,3.18181818181818,4,2,4,4,2,1,4,4,2,4,4,2,5,2,4,2,2,3,4,4,2,3,4,4,2,3,3,4,2,3,4,4,3,3,3.23076923076923,2,2,2,1, ,4,2,5, ,2,1,8,8,2,1,2,3,1, , ,1,1, ,2,Rowing, , , , ,15, , , , ,7,5,5,5,7,7,7,7,1,2,2,4,4,2,4,3,3,5,5,2,1,2,4,4,5,4,4,4,4,5,4,4,3,3,3,1,4,5,2,3,2,4,4,4,4,3,1,2,2,2,4,5,3,4,4,4,2,2,5,2,4,2,4,2,1,5,2.84615384615385,2,3,5,2,2,2,2,3,4,3,3,4,3,3,36.2777777777778,36.8888888888889,2,36.5833333333333,1,12.2222222222222,5,1,.549484734465785,-.249236496076666,UCSB
1997,4,4,2,2,3,3,4,2,3,2,2,1,1,1,2,1,2.77777777777778,0,4,3.33333333333333,58,2.88888888888889,.5,2.81818181818182,1,3,3,1,3,4,5,2,2,3,1,5,2,5,2,2,1,5,1,2,2,4,3,3,3,3,3,3,2,2,3,2,3,4,5,2,3,10:51:00,1.2,2,2,3,4,4,4,4,4,4,4,4,4,5,5,5,3,3,3,3,32,5.66666666666667,3.63636363636364,4,4,4,4,4,2,3,3,4,4,4,4,4,2,4,3,3,2,4,4,1,4,3,4,2,4,2,4,2,3,5,3,4,4,3.38461538461538,2,1,2,1, ,4,4,5, ,6,3,8,6,1, ,2,6,3,8,5,5,1, ,1, , , , , , , , , , ,5,7,6,6,5,5,5,7,4,1,3,2,5,4,3,5,5,2,4,1,3,3,4,2,5,5,5,5,4,4,4,4,1,3,2,4,1,2,5,1,4,3,4,5,5,4,4,2,3,2,4,3,3,2,2,4,4,4,4,1,4,4,3,4,2,2,2.53846153846154,3,3,3,2,2,2,2,3,2,3,3,5,2,3,36.6111111111111,36.8888888888889,2,36.75,1,10,5,1,-.532783070804211,-.249236496076666,UCSB
1997,2,4,2,2,1,2,2,4,2,2,3,2,2,2,2,2,3.22222222222222,0,4.88888888888889,3.77777777777778,65,2.83333333333333, ,2.36363636363636,1,5,3,3,3,3,3,3,5,2,2,3,3,3,3,3,3,6,2,3,3,5,3,2,3,3,2,2,3,2,2,2,3,3,5,2,3, ,2,2,0,4,5,5,5,5,5,5,4,5,5,4,3,4,4,4,4,4,21,6.16666666666667,3.36363636363636,4,5,4,4,4,2,2,2,4,2,4,3,4,3,4,4,4,4,4,4,2,2,2,2,2,3,1,3,2,2,4,2,3,3,2.38461538461538,2,2,2,1, ,4,4,5, ,8,2,8,8,1, ,2,1,3,1,4,1,1, ,1, , , , , , , , , , ,6,6,6,6,7,6,6,7,2,2,4,2,4,3,4,2,4,4,1,4,2,4,4,2,4,4,3,4,5,4,4,4,2,2,2,2,2,4,4,2,2,4,2,4,4,4,4,2,2,5,4,2,4,2,4,5,5,5,5,2,4,4,4,2,2,4,3.23076923076923,4,4,4,3,2,2,4,4,3,3,4,5,3,2,36.3333333333333,36.3888888888889,2,36.3611111111111,1,9.44444444444444,5,1,-.172027135714212,-.305785953169691,UCSB
1994,3,2,1,3,2,3,2,3,2,2,2,2,2,2,3,1,2.77777777777778,0,4.55555555555556,4,82,2.83333333333333, ,2.27272727272727,1,2,2,2,4,4,2,4,3,2,2,2,4,6,2,3,3,1,2,4,2,4,2,3,2,2,2,2,2,3,5,2,3,3,4,2,4,11:38:00,2,2,4,5,5,5,5,5,5,4,4,4,4,2,2,4,2,3,2,2,19,5.33333333333333,4.09090909090909,5,5,5,3,4,4,4,4,4,3,4,4,4,4,4,4,3,4,4,5,2,5,4,5,3,4,4,3,2,5,4,4,5,4,4,1,2,2,1, ,4,4,5, ,8,3,5,3,1, ,2,8,1, , ,1,1, ,2,choir,photography club, , , ,2,5, , , ,4,6,6,6,5,5,5,6,2,2,4,4,4,4,4,5,4,5,2,2,3,3,4,3,5,3,3,4,4,4,5,4,3,3,3,2,3,4,2,2,2,3,4,3,4,2,4,2,2,3,4,3,3,2,5,4,4,4,5,2,5,3,5,4,3,3,2.23076923076923,2,3,2,4,2,2,2,2,1,2,3,4,2,2,36.7777777777778,36.8888888888889,2,36.8333333333333,1,12.2222222222222,5,1,-.532783070804211,-.305785953169691,UCSB
1996,1,3,1,2,1,2,3,3,4,1,2,2,2,1,5,4,2.5,0,4.33333333333333,4.22222222222222,55,2.83333333333333,0,2.09090909090909,1,5,3,2,4,3,6,2,3,2,2,3,1,2,1,1,2,2,1,3,1,5,2,6,3,5,3,3,2,2,3,2,2,3,3,2,1,11:32:00,2.8,2,2,5,5,5,4,5,5,5,2,4,4,2,2,5,2,2,3,3,10,5.33333333333333,2.72727272727273,5,4,2,4,1,1,4,2,2,3,2,4,5,4,5,4,4,5,4,3,2,1,2,3,2,2,1,1,2,3,2,1,2,1,1.76923076923077,1,1,2,1, ,4,2,5, ,4,2,4,4,1, ,2,8,1, , ,1,1, ,1, , , , , , , , , , ,3,7,6,5,6,5,2,6,2,4,5,5,3,1,5,5,1,5,4,2,2,2,4,3,5,4,3,4,3,4,5,4,2,1,2,1,5,4,2,4,4,5,2,4,4,5,5,4,5,3,4,4,1,4,4,4,1,1,3,4,5,2,4,1,1,3,2.15384615384615,2,2,2,2,4,2,2,2,2,3,1,4,2,2,36.4444444444444,36.6666666666667,2,36.5555555555556,1,10.5555555555556,5,1,-.75825553023546,-.305785953169691,UCSB
1995,3,3,2,2,3,2,4,2,5,2,1,3,3,2,4,2,1.77777777777778,0,4.22222222222222,3.55555555555556,71,2.83333333333333, ,2.63636363636364,1,2,2,2,1,1,2,3,2,2,2,2,1,2,1,2,2,1,2,2,3,2,2,2,5,3,2,2,3,3,4,2,4,3,4,2,3, ,2.8,2,3,4,4,5,4,5,5,5,3,3,4,5,6,3,3,3,4,5,35,5.16666666666667,3.27272727272727,4,4,4,4,3,2,2,3,4,2,4,4,4,2,4,4,3,4,3,4,2,4,5,2,1,3,3,4,2,3,4,4,4,4,3.30769230769231,2,2,2,1, ,4,4,2,4,4,2,8,6,2,3,2,8,1, , ,8,1, ,2,Sorority, , , , ,7, , , , ,7,5,5,4,5,5,5,8,4,2,4,3,4,2,2,4,2,4,2,2,4,3,4,1,5,4,4,4,4,4,3,3,2,2,2,3,2,2,4,2,2,2,2,3,3,2,3,2,3,3,4,2,2,4,3,4,4,3,4,3,4,2,3,4,3,2,2.53846153846154,2,2,4,2,3,2,2,4,2,2,2,5,3,3,37.0111111111111,36.4444444444444,2,36.7277777777778,1,7.77777777777778,5,1,-1.34448392475671,-.305785953169691,UCSB
1995,2,2,1,2,1,1,1,1,1,1,1,3,1,5,2,5,2.16666666666667,0,5,2.11111111111111,78,2.77777777777778, ,1.27272727272727,1,2,2,2,2,4,3,2,2,2,2,2,2,2,2,2,2,2,2,2,6,3,3,2,3,2,3,4,2,3,3,2,1,2,3,4,2, ,3.2,2,0,4,5,5,5,5,5,5,5,5,5,5,6,5,4,4,4,3,33,2.83333333333333,2.54545454545455,3,3,2,2,3,3,3,2,2,3,2,2,3,2,2,2,2,2,2,2,1,4,4,5,4,3,3,1,2,2,3,5,3,3,3.23076923076923,2,2,2,1, ,4,4,5, ,8,5,8,8,2,8,2,8,1, , ,4,2,3,1, , , , , , , , , , ,4,3,3,3,2,2,2,8,4,2,4,3,4,4,4,4,4,2,2,2,2,2,4,4,3,3,4,4,4,4,4,4,2,2,2,4,4,3,3,2,2,2,2,4,4,3,2,2,4,2,4,4,4,2,4,4,4,4,4,2,4,4,4,3,4,3,2.76923076923077,2,4,4,3,2,2,2,3,3,2,4,3,2,3,36.5,36.4444444444444,2,36.4722222222222,1,14.4444444444444,5,1,-1.02882248155296,-.362335410262716,UCSB
1995,2,3,3,2,2,2,3,2,2,2,3,2,1,3,3,2,3.05555555555556,0,3.22222222222222,1.77777777777778,65,2.77777777777778,2,2.36363636363636,1,2,4,2,2,2,6,6,2,3,2,6,2,2,2,6,2,2,2,2,2,5,2,2,3,2,3,2,4,4,4,2,5,2,2,2,2, ,2.2,2,17,3,4,4,4,4,4,1,1,3,4,4,5,3,2,2,1,1,20,5.66666666666667,1,1,1,1,1,1,1,1,1,1,1,1,1,3,1,1,1,3,3,1,2,1,3,2,1,2,3,2,2,1,4,4,4,5,3,2.76923076923077,1,1,2,1, ,4,4,4,1,5,1,8,8,1, ,2,3,1, , ,5,1, ,1, , , , , , , , , , ,6,7,5,5,5,6,5,7,3,3,3,4,4,2,2,2,3,4,2,2,2,3,4,2,3,2,2,3,2,2,2,2,2,2,2,4,2,2,5,3,2,3,1,2,4,2,2,1,3,4,3,2,2,2,2,5,2,2,2,3,4,2,2,3,4,1,2.38461538461538,3,1,3,2,2,2,3,2,2,2,3,4,2,4,37.0333333333333,37.1611111111111,2,37.0972222222222,1,9.44444444444444,5,1,-.307310611372962,-.362335410262716,UCSB
1997,3,3,2,4,5,3,4,3,3,2,3,2,2,3,4,3,2.05555555555556,0,5,2.33333333333333,64,2.72222222222222, ,3.18181818181818,1,1,2,1,4,4,1,1,4,5,1,2,2,2,1,1,2,1,2,2,2,5,2,2,2,1,1,1,3,4,3,5,2,4,4,2,4, ,2.8,2,0,4,5,5,5,5,5,5,5,5,5,2,1,2,1,2,2,2,14,4.5,1.81818181818182,3,1,2,2,3,1,1,1,4,1,1,2,4,1,4,2,3,3,1,1,1,4,4,4,3,3,3,4,4,3,4,4,4,4,3.69230769230769,1,2,2,1, ,4,4,4,1,2,1,5,5,2,1,2,5,1, , ,1,1, ,1, , , , , , , , , , ,2,5,5,4,5,6,4,8,3,3,2,2,5,3,3,3,4,2,2,2,3,2,4,3,1,5,3,4,4,2,3,2,1,1,1,4,2,2,3,3,3,4,2,3,4,5,3,3,4,4,4,3,3,2,5,5,1,2,2,2,5,2,2,4,5,1,2.61538461538462,2,2,4,3,2,2,2,3,4,2,2,5,2,4,37.1111111111111,37.0555555555556,2,37.0833333333333,1,6.11111111111111,5,1,-1.11901146532546,-.418884867355741,UCSB
1996,1,1,1,5,2,3,4,1,2,3,2,2,2,2,5,2,1.16666666666667,0,5,3.77777777777778,57,2.72222222222222, ,2.27272727272727,1,1,1,1,2,1,1,1,1,2,1,1,1,1,2,1,1,1,1,3,4,4,2,1,1,1,7,7,2,1,1,3,1,2,5,2,2,3:15:00,2.6,2,3,3,5,5,5,5,5,5,5,5,5,5,7,6,1,1,5,6, ,4.5,3.36363636363636,5,4,5,4,4,1,2,2,3,2,5,4,4,3,5,4,3,3,4,4,1,2,5,5,4,4,3,4,5,4,5,5,5,5,4.30769230769231,2,2,2,1, ,4,4,5, ,4,4,1,1,2,8,2,8,2,1,2,2,2,8,2,Yoga,na,na,na,na,7,0,0,0,0,3,5,5,5,5,4,4,10,4,1,3,2,5,4,4,2,5,4,1,1,4,4,4,1,4,3,4,4,4,4,4,4,1,1,1,5,1,1,4,1,2,1,3,4,5,5,2,2,2,1,4,1,1,1,5,4,5,5,1,3,2,1,1,3,5,3,2.76923076923077,4,4,4,2,2,2,3,3,3,2,2,5,2,3,36.9444444444444,37,2,36.9722222222222,1,6.11111111111111,5,1,-1.84052333550546,-.418884867355741,UCSB
1997,3,3,3,2,3,3,3,4,3,4,4,3,4,2,4,2,4.66666666666667,0,5,3.33333333333333,83,2.61111111111111, ,3.18181818181818,1,5,5,5,5,6,5,5,6,5,3,5,5,4,4,4,4,6,2,2,2,4,2,2,2,6,2,2,3,2,3,3,3,3,2,2,2,11:50:00,3,2,0,2,5,5,5,5,5,5,5,5,5,3,4,3,1,1,1,2,13,4.33333333333333,2.81818181818182,2,2,2,2,2,2,4,3,4,4,4,4,3,3,4,3,2,4,2,5,2,5,1,3,4,4,1,2,2,2,3,5,2,2,2.76923076923077,1,2,2,1, ,4,2,4,1,8,2,6,6,1, ,2,8,1, , ,1,1, ,1, , , , , , , , , , ,3,5,5,5,4,4,5,7,3,4,4,4,4,3,3,2,4,4,3,3,3,3,4,5,5,5,4,4,5,4,4,4,3,3,3,2,4,3,3,4,4,3,4,5,5,4,1,4,3,5,2,5,3,2,4,4,4,4,2,2,3,3,3,3,2,3,3.53846153846154,3,3,4,3,3,3,3,4,3,4,4,5,4,5,36.4444444444444,36.9444444444444,2,36.6944444444444,1,13.3333333333333,5,1,1.00042965332828,-.531983781541792,UCSB
1996,2,4,2,3,4,2,2,2,2,3,2,2,2,2,2,2,4.61111111111111,0,3.44444444444444,3.55555555555556,58,2.61111111111111, ,2.54545454545455,1,6,6,5,6,6,6,5,5,5,2,6,2,2,5,6,2,6,2,3,2,5,2,3,2,3,2,2,2,2,2,2,3,5,3,2,2,11:00:00,2,2,2,3,4,4,4,5,4,2,2,2,4,3,4,6,2,3,3,3,18,5.33333333333333,3.72727272727273,4,4,4,4,3,4,4,4,2,4,4,4,2,2,4,4,4,4,4,4,1,3,3,5,3,4,2,2,2,2,3,4,4,3,3.07692307692308,2,2,2,1, ,4,2,4,1,3,1,4,2,1, ,2,6,1, , ,1,1, ,2,Hermanas Unidas,Sierra Madre Community Council, , , ,6,4, , , ,7,5,3,5,6,6,5,7,2,2,4,4,4,4,4,4,4,4,4,2,2,4,3,4,4,4,4,4,4,4,4,4,2,2,2,2,4,4,4,2,2,4,2,4,4,4,2,2,4,4,4,4,4,2,4,4,4,4,4,2,4,4,3,4,2,4,3.30769230769231,2,4,4,3,4,3,3,4,3,4,4,4,2,3,36.8888888888889,37.2222222222222,2,37.0555555555556,1,10,5,1,.955335161442034,-.531983781541792,UCSB
1995,2,2,2,2,2,3,2,2,2,2,2,2,2,3,3,2,3.11111111111111,0,2.66666666666667,1.88888888888889,86,2.61111111111111,2,2.09090909090909,1,2,5,2,3,3,4,6,3,5,2,2,2,3,2,2,2,6,2,4,3,2,3,2,2,3,2,2,3,3,4,2,2,3,3,2,2,11:26:00,2.4,2,10,3,1,3,4,3,3,2,2,2,4,4,4,3,1,1,1,1,29,5.33333333333333,1.09090909090909,1,1,1,1,1,1,2,1,1,1,1,1,4,1,4,1,1,2,1,2,2,4,1,4,1,2,2,1,1,5,3,3,5,3,2.69230769230769,1,1,2,1, ,4,4,5, ,5,1,8,8,1, ,2,3,3,1,6,8,1, ,1, , , , , , , , , , ,6,7,5,4,6,4,4,7,3,1,2,3,5,2,3,2,4,3,1,3,1,2,4,2,4,2,2,4,2,3,2,2,2,4,4,4,1,2,4,3,1,2,2,2,4,2,2,2,3,3,4,3,2,4,2,4,2,2,3,3,4,2,3,4,3,2,3.23076923076923,3,3,4,3,3,2,3,4,2,3,5,4,3,4,36.5555555555556,37.1111111111111,2,36.8333333333333,1,12.2222222222222,5,1,-.262216119486712,-.531983781541792,UCSB
1997,3,2,2,2,3,3,2,2,2,2,2,3,3,4,3,3,2.16666666666667,3,2.77777777777778,2.77777777777778,76,2.55555555555556,0,2.27272727272727,1,3,2,2,2,3,2,2,2,2,1,2,1,2,2,3,2,4,2,4,3,3,1,2,1,1,2,2,3,3,4,3,3,3,4,1,3,11:59:00,3.2,2,3,4,3,3,3,4,4,2,2,2,2,2,5,4,2,2,4,4,16,4.33333333333333,2.72727272727273,4,4,2,3,2,1,3,2,4,2,3,3,4,2,4,2,2,2,2,4,1,4,4,3,1,2,3,3,3,5,4,2,3,2,3,1,1,2,1, ,4,4,5, ,8,3,7,7,1, ,2,6,1, , ,1,1, ,1, , , , , , , , , , ,7,3,4,4,4,4,4,6,3,3,4,4,4,2,3,3,3,4,4,2,3,4,4,2,4,4,3,4,3,3,4,3,2,3,3,2,4,4,4,2,2,3,3,4,4,3,2,4,2,4,3,2,3,4,4,4,4,4,2,3,2,3,2,3,2,4,2.84615384615385,3,4,3,2,4,2,3,3,3,3,3,4,2,2,36.1666666666667,37.2222222222222,2,36.6944444444444,1,10,5,1,-1.02882248155296,-.588533238634817,UCSB
1997,5,5,3,5,3,4,5,4,5,5,4,2,2,2,3,3,5.77777777777778,0,5,3,47,2.5, ,4.36363636363636,1,6,5,5,7,7,6,5,5,6,7,6,6,7,4,2,7,6,7,1,1,5,1,3,2,1,1,7,3,2,1,2,2,4,4,1,4,10:50:00,2.4,2,1,1,5,5,5,5,5,5,5,5,5,2,7,7,7,7,7,7,35,7,3.18181818181818,4,3,4,4,3,3,3,4,1,4,2,4,2,2,4,2,5,1,3,4,2,3,2,2,1,2,1,1,2,3,5,5,2,2,2.38461538461538,2,2,2,1, ,4,2,5, ,2,2,6,6,1, ,2,8,3,1,8,8,1, ,2,an ethnic club, , , , ,25, , , , ,7,7,7,7,7,7,7,7,4,1,4,4,4,2,2,4,1,5,3,4,4,5,4,3,4,5,5,5,2,2,2,2,2,4,4,1,2,3,1,4,5,2,2,5,2,5,2,1,2,4,5,5,4,4,5,5,5,5,5,1,4,4,4,4,2,4,3.69230769230769,4,4,5,1,3,4,3,4,3,4,5,5,3,5,36,36.7777777777778,4,36.3888888888889,1,9.44444444444444,5,1,1.90231949105328,-.645082695727842,UCSB
1997,2,2,2,2,2,2,2,2,2,2,2,2,2,2,2,3,3.16666666666667,0,4.55555555555556,4.22222222222222,76,2.5, ,2,1,2,2,2,4,5,2,5,5,3,2,2,5,2,5,2,2,5,2,2,2,3,2,2,2,2,3,3,2,4,3,2,2,3,4,2,2,11:22:00,2.2,2,3,3,4,5,4,4,5,5,5,5,4,4,3,4,2,2,3,2,25,5.33333333333333,3.54545454545455,4,4,4,4,4,3,4,4,2,2,4,5,5,4,5,4,2,4,5,4,2,3,3,1,4,4,2,3,4,2,4,4,4,4,3.23076923076923,1,2,2,1, ,4,4,5, ,6,1,5,5,1, ,2,8,1, , ,3,1, ,2,QSU,FUQIT, , , ,5,6, , , ,6,6,5,5,6,4,5,6,3,1,1,4,5,5,3,2,5,2,2,2,2,4,5,3,4,4,4,4,4,3,4,2,2,2,2,5,2,4,4,3,2,4,2,4,4,4,2,2,4,2,4,2,3,2,4,4,4,2,2,3,4,2,2,3,2,2,2.30769230769231,2,2,3,2,2,2,2,2,2,3,3,5,2,3,36.9444444444444,37,2,36.9722222222222,1,10,5,1,-.217121627600462,-.645082695727842,UCSB
1997,2,2,1,2,1,2,2,2,2,1,2,4,2,2,2,1,2.66666666666667,0,3.55555555555556,3.33333333333333,55,2.5, ,1.72727272727273,1,2,5,2,5,2,3,2,2,3,2,3,2,2,2,2,5,2,2,2,6,2,2,3,1,6,2,2,2,2,1,3,2,2,2,2,3,12:00:00,2.2,2,2,3,4,3,4,4,4,3,4,4,2,2,3,5,2,2,3,1,12,4.16666666666667,2.72727272727273,4,3,3,3,3,2,3,2,2,2,3,3,4,4,4,3,2,2,4,4,1,3,2,4,4,4,2,2,3,3,3,4,4,2,3.07692307692308,2,2,2,1, ,4,4,5, ,4,1,6,5,1, ,2,6,1, , ,1,1, ,1, , , , , , , , , , ,3,6,4,4,4,4,5,6,3,2,3,4,4,2,2,2,2,4,2,2,2,3,4,3,4,5,3,3,3,3,3,3,2,2,2,3,3,2,2,3,2,2,2,4,3,4,2,2,3,3,2,2,3,3,4,4,4,4,3,4,4,3,2,3,2,2,3.07692307692308,2,3,5,3,4,2,4,3,4,3,2,4,3,2,36.8333333333333,36.7222222222222,2,36.7777777777778,1,10.5555555555556,5,1,-.622972054576711,-.645082695727842,UCSB
1997,3,1,1,4,1,2,4,1,5,4,2,1,1,2,3,2,3.83333333333333,0,4.33333333333333,3,86,2.44444444444444, ,2.54545454545455,1,4,2,4,5,4,5,4,6,4,2,6,2,4,2,5,2,6,2,1,1,7,1,4,4,2,1,1,2,2,2,2,1,6,4,1,2,11:18:00,1.8,2,12,2,4,5,5,5,5,4,3,4,4,5,6,5,5,5,5,3,19,3.66666666666667,2,4,2,3,2,1,1,2,1,1,1,4,5,4,3,4,2,2,2,2,3,1,1,3,4,3,2,1,1,3,2,2,1,1,1,1.92307692307692,1,2,2,1, ,4,2,4,1,7,4,6,5,1, ,2,8,1, , ,6,1, ,1, , , , , , , , , , ,4,4,3,3,4,4,4,7,4,5,4,4,3,5,2,3,4,4,2,2,3,4,4,4,4,3,2,4,4,3,4,4,1,1,1,2,4,4,4,4,2,2,2,2,4,2,4,4,4,5,4,4,2,2,4,4,2,2,2,4,2,2,2,2,2,1,3.23076923076923,1,3,4,3,4,4,4,3,2,5,2,5,2,5,36.8333333333333,37.0555555555556,2,36.9444444444444,1,12.2222222222222,5,1,.324012275034536,-.701632152820867,UCSB
1997,4,5,4,5,3,4,2,5,3,5,2,2,2,2,3,1,3.05555555555556,0,2.77777777777778,3.55555555555556,60,2.44444444444444,0,3.81818181818182,1,5,2,1,5,2,5,2,2,2,2,2,2,6,4,2,4,6,1,2,2,7,1,3,1,2,3,2,1,1,2,1,3,6,3,2,2,11:55:00,2,2,0,4,2,4,4,4,4,1,2,2,2,5,6,5,1,3,6,6,34,5.33333333333333,3.09090909090909,4,3,4,3,3,2,3,3,3,3,3,4,3,4,2,4,4,4,4,3,1,2,2,3,2,3,1,2,1,2,4,2,1,3,2.15384615384615,2,1,2,1, ,4,4,5, ,8,3,7,7,1, ,2,6,3,1,3,8,2,3,2,TBL,MC,RCSGD, , ,2,1,1, , ,6,6,3,5,6,6,4,8,4,4,4,5,4,4,2,4,4,4,4,3,4,4,4,3,4,5,5,5,4,4,5,5,1,2,2,2,2,3,3,4,3,5,2,4,4,4,5,2,4,3,4,5,5,3,2,4,5,5,4,3,4,3,5,4,3,4,2.61538461538462,2,4,3,2,3,2,3,4,2,3,2,5,2,2,36.3333333333333,36.8888888888889,4,36.6111111111111,1,9.44444444444444,5,1,-.307310611372962,-.701632152820867,UCSB
1997,2,4,1,2,3,2,3,2,3,2,1,2,2,2,3,1,2.88888888888889,0,4.33333333333333,3.11111111111111,69,2.38888888888889, ,2.27272727272727,1,2,4,2,4,4,2,2,2,2,2,3,4,2,2,5,4,5,1,2,2,2,2,2,3,4,2,2,2,2,3,2,3,3,3,2,2,11:06:00,2,2,0,4,5,5,5,5,5,4,3,3,4,5,7,5,4,3,5,3,25,4.5,3.36363636363636,4,4,4,4,4,1,3,3,3,4,3,3,4,2,4,3,4,3,2,3,2,5,4,5,5,4,5,3,4,4,4,4,4,4,4.23076923076923,2,2,2,1, ,4,2,5, ,8,4,5,5,2,2,2,4,1, , ,3,2,3,2,Cypress SC,OA SADD, , , ,2,3, , , ,5,6,5,4,3,4,4,8,2,2,4,4,4,3,3,3,3,4,3,2,3,2,4,3,5,3,4,4,4,4,4,4,1,1,3,3,3,3,3,4,2,3,2,4,4,4,3,2,4,4,4,3,1,3,4,3,2,1,3,2,3,3,3,3,2,3,2.46153846153846,3,3,3,2,2,2,2,3,2,2,3,4,2,3,36.9444444444444,37.0555555555556,2,37,1,8.33333333333333,5,1,-.442594087031711,-.758181609913892,UCSB
1997,4,3,3,2,2,3,3,3,3,4,3,3,5,3,3,3,3.72222222222222,0,5,1.22222222222222,80,2.33333333333333,1,3,1,3,6,3,4,4,3,2,5,4,2,4,2,6,4,3,3,6,3,1,3,2,2,3,2,2,3,2,3,2,2,3,2,2,3,2,3, ,3.4,2,2,3,5,5,5,5,5,5,5,5,5,3,4,4,4,4,7,4,24,7,1,1,1,1,1,1,1,1,1,1,1,1,1,1,1,3,1,1,1,1,1,1,3,3,2,2,4,2,3,3,4,4,2,3,3,2.92307692307692,1,1,2,1, ,3,3,4,1,7,3,8,8,1, ,2,4,1, , ,8,1, ,1, , , , , , , , , , ,7,7,7,7,7,7,7,7,3,2,2,4,4,4,4,4,3,3,3,3,3,4,4,3,5,5,5,5,5,5,4,4,3,3,3,4,4,3,4,3,2,2,4,3,5,1,5,3,3,2,3,3,3,4,3,4,3,2,4,3,4,3,4,3,5,3,2.69230769230769,3,5,3,2,2,1,3,3,2,2,5,4,2,2,37,37.1111111111111,2,37.0555555555556,1,8.33333333333333,5,1,.233823291262036,-.814731067006917,UCSB
1996,2,4,1,2,1,2,3,2,3,2,1,2,2,3,4,3,3.5,0,4.77777777777778,3.11111111111111,74,2.33333333333333, ,2.09090909090909,1,4,4,2,5,4,5,3,3,3,2,6,4,3,2,2,5,4,2,2,3,3,2,2,2,2,2,2,2,2,2,3,2,3,3,2,3, ,2.8,1,3,4,5,4,4,5,5,5,5,5,5,4,7,6,3,3,3,3,37,5.16666666666667,3.36363636363636,4,4,4,4,2,2,4,3,4,2,4,2,4,3,4,4,2,3,4,2,1,3,4,4,4,4,3,4,3,4,5,4,3,4,3.76923076923077,2,2,2,1, ,4,2,5, ,5,1,8,6,1, ,2,4,1, , ,3,1, ,2,Volleyball Team,Dorms,Hometown,Family,High School,12,3,3,4,8,7,4,5,5,5,5,5,7,1,1,4,5,5,4,4,3,4,5,2,2,3,3,4,3,4,4,4,4,3,4,2,2,2,3,3,3,3,4,3,2,3,3,2,5,4,4,2,2,4,3,4,3,4,2,4,4,4,3,4,2,3,4,3,3,2,2,2.61538461538462,2,4,5,2,2,2,2,3,2,2,3,5,2,3,36.7222222222222,36.7222222222222,2,36.7222222222222,1,12.2222222222222,5,1,.053445323717037,-.814731067006917,UCSB
1995,2,2,2,2,1,1,2,1,1,1,2,2,2,3,3,2,1.77777777777778,0,4.66666666666667,2.88888888888889,81,2.33333333333333, ,1.54545454545455,1,1,2,1,2,1,1,2,2,4,1,2,2,2,2,2,1,3,1,2,1,4,1,2,2,2,2,6,2,2,2,2,2,3,3,2,2,11:22:00,2.4,2,0,3,4,5,5,5,5,5,3,5,5,4,5,6,4,4,4,3,30,3,2.36363636363636,5,2,3,3,2,1,1,1,4,1,3,2,4,2,4,2,2,2,4,4,1,2,4,4,2,3,3,2,2,3,4,3,2,4,2.92307692307692,2,2,2,1, ,4,4,4,1,5,5,4,4,1, ,2,8,3,1,6,1,1, ,2,on campus club, , , , ,10, , , , ,3,4,3,3,3,2,2,8,2,2,4,4,4,4,3,4,4,4,2,1,2,3,4,3,4,5,4,5,5,2,4,4,1,1,1,2,4,2,2,4,2,3,4,4,4,2,2,2,3,3,4,3,2,4,4,2,2,2,3,4,2,2,4,2,4,1,2.53846153846154,2,3,5,2,3,2,2,2,3,2,3,5,2,2,37,37.1111111111111,2,37.0555555555556,1,12.2222222222222,5,1,-1.34448392475671,-.814731067006917,UCSB
1996,1,1,1,1,1,1,2,1,1,1,3,2,1,1,2,2,1.61111111111111,0,4,3.44444444444444,47,2.33333333333333, ,1.27272727272727,1,1,5,1,1,1,3,1,2,3,1,2,1,1,1,2,1,1,1,1,2,5,2,2,1,2,2,2,3,1,2,2,1,5,4,2,3,10:59:00,1.6,2,0,3,4,4,3,5,5,2,3,5,5,3,3,4,2,2,4,2,32,5.66666666666667,3,4,4,4,4,3,2,2,2,1,3,4,4,4,3,4,4,3,4,1,4,1,5,5,3,4,4,5,4,3,5,5,4,5,4,4.30769230769231,2,2,2,1, ,4,4,5, ,7,3,8,8,1, ,2,8,1, , ,1,2,4,2,study group,sorority, , , ,4,20, , , ,6,6,6,6,5,5,6,7,3,2,4,2,4,2,4,4,2,3,2,2,3,2,3,2,4,4,3,5,2,4,4,2,5,2,5,3,2,4,4,2,2,2,2,4,4,5,2,1,4,3,4,2,4,4,2,3,4,4,4,2,2,4,4,3,2,4,2.38461538461538,1,3,4,3,2,1,2,1,3,3,3,5,3,2,35.8333333333333,36.9444444444444,2,36.3888888888889,1,9.44444444444444,5,1,-1.47976740041546,-.814731067006917,UCSB
1995,5,5,3,3,5,3,5,4,5,4,4,1,5,3,4,3,5.77777777777778,0,5,4.88888888888889,84,2.27777777777778, ,4.18181818181818,1,7,7,7,4,7,7,6,5,6,3,7,4,4,4,7,7,7,5,2,2,5,1,2,2,2,3,4,1,1,1,1,2,4,3,2,3, ,3.2,2,0,3,5,5,5,5,5,5,5,5,5,5,5,4,3,3,3,4,15,2.83333333333333,5,5,5,5,5,5,5,5,5,5,5,5,5,5,5,5,5,4,5,5,5,1,2,3,3,2,3,2,2,2,2,4,2,2,3,2.46153846153846,1,2,2,1, ,4,2,5, ,3,1,4,4,1, ,2,8,3,1,3,1,2,2,1, , , , , , , , , , ,2,3,3,3,3,3,3,8,1,5,4,5,2,2,4,5,2,5,4,4,4,4,5,5,3,5,5,5,5,3,5,5,2,2,2,1,5,4,2,5,2,4,1,5,2,2,5,3,4,5,3,5,5,4,5,3,3,5,4,2,4,4,4,3,2,5,3.76923076923077,3,4,5,3,4,3,3,4,4,4,4,4,4,4,36.9444444444444,36.7777777777778,2,36.8611111111111,1,7.22222222222222,5,1,1.90231949105328,-.871280524099943,UCSB
1995,3,3,2,2,3,2,4,3,2,4,2,2,2,2,2,2,3.38888888888889,0,3.77777777777778,3.11111111111111,60,2.27777777777778, ,2.72727272727273,2,3,3,1,5,5,4,2,4,2,2,6,3,4,4,5,3,4,1,2,2,3,2,2,2,3,2,2,2,2,2,3,4,2,2,2,2,11:51:00,2,2,8,4,4,4,4,4,4,4,4,3,3,4,5,6,5,4,4,4,29,5.5,3.45454545454545,4,4,4,4,4,2,2,3,4,3,4,3,4,2,4,3,3,2,3,4,1,3,3,2,2,3,5,4,4,3,4,2,2,3,3.07692307692308,2,2,2,1, ,4,4,5, ,4,2,6,6,1, ,2,4,3,1,4,3,2,8,1, , , , , , , , , , ,7,5,5,5,6,5,6,8,3,2,3,3,2,4,3,4,4,4,3,2,4,4,3,3,4,5,5,4,4,3,3,3,2,2,3,2,2,4,4,3,3,4,4,3,3,4,2,4,3,4,4,4,4,2,3,4,4,4,3,2,4,3,3,3,2,4,2.76923076923077,3,3,4,2,3,2,2,3,3,3,3,5,3,2,36.8888888888889,37.3333333333333,4,37.1111111111111,1,9.44444444444444,5,1,-.0367436600554628,-.871280524099943,UCSB
1996,3,3,1,2,2,3,4,3,2,2,2,2,3,1,3,2,1.83333333333333,0,4.44444444444444,2.33333333333333,86,2.11111111111111, ,2.45454545454545,2,2,2,2,2,1,2,2,2,1,2,2,2,2,2,2,1,2,2,3,2,2,2,2,2,2,2,2,2,3,2,2,2,2,2,2,2,10:25:00,2.2,1,32,4,4,5,5,5,5,4,4,4,4,4,5,4,2,2,6,6,23,4.33333333333333,1.63636363636364,2,2,2,2,2,1,1,1,3,1,1,2,2,2,2,2,2,3,2,4,1,1,4,5,4,2,2,2,3,1,4,3,3,3,2.84615384615385,1,2,2,1, ,4,4,4,1,2,2,5,5,1, ,2,8,3,1,8,1,1, ,1, , , , , , , , , , ,4,5,4,3,5,5,5,8,3,2,3,4,4,2,4,5,3,5,2,2,4,4,4,4,4,5,5,5,4,4,5,5,2,2,2,3,4,4,2,3,2,1,2,2,3,2,2,1,2,3,2,2,3,2,4,4,4,4,5,2,4,4,2,2,2,3,2.69230769230769,4,2,3,2,2,3,2,3,2,3,3,5,3,3,36.3888888888889,37.3333333333333,2,36.8611111111111,1,12.2222222222222,5,1,-1.29938943287046,-1.04092889537902,UCSB
1995,1,2,2,2,1,2,2,2,2,2,2,2,4,2,4,2,2.16666666666667,0,3.33333333333333,3,83,2.11111111111111, ,1.81818181818182,1,2,2,1,2,1,2,2,5,2,1,6,2,2,2,2,1,2,2,2,2,3,2,2,2,2,3,2,2,3,2,1,1,4,2,1,2,11:53:00,2.8,1,0,5,4,3,3,4,4,3,2,2,5,4,4,4,3,5,2,4,30,1.16666666666667,3,4,4,4,4,4,1,2,2,2,2,4,2,4,2,4,3,2,4,4,2,1,4,2,2,4,4,2,2,3,1,4,4,3,4,3,2,2,2,1, ,4,2,5, ,3,3,7,7,1, ,2,4,3,1,4,5,1, ,2,kp ucsb, , , , ,7, , , , ,1,1,1,1,1,2,1,7,3,4,2,3,3,2,2,4,3,4,2,2,2,3,2,4,4,4,2,4,3,4,4,3,2,2,2,2,3,2,2,2,2,3,2,2,4,4,4,2,4,4,3,3,3,4,4,4,3,2,2,2,2,2,2,2,4,2,2.23076923076923,3,3,3,1,2,2,2,3,2,2,3,4,1,2,36.0555555555556,37.2222222222222,2,36.6388888888889,1,11.1111111111111,5,1,-1.02882248155296,-1.04092889537902,UCSB
1995,1,2,1,2,2,1,4,2,2,1,2,2,1,2,4,2,1.27777777777778,0,5,1.77777777777778,81,2.05555555555556, ,1.81818181818182,1,1,1,1,1,1,2,1,2,1,2,1,1,2,1,1,1,1,2,2,2,2,1,2,1,6,2,2,1,3,3,2,1,2,2,1,2,11:16:00,2.2,2,0,2,5,5,5,5,5,5,5,5,5,3,4,4,4,4,4,4,24,4.5,1.54545454545455,1,1,1,4,1,1,1,1,1,1,4,1,4,2,4,1,1,1,1,1,2,5,4,5,4,4,4,2,2,5,5,5,4,4,4.07692307692308,2,2,2,1, ,4,4,5, ,1, ,4,4,1, ,2,8,1, , ,8,1, ,2,Greek Organization, , , , ,100, , , , ,4,4,5,3,6,5,6,5,3,4,4,5,1,1,5,4,1,5,5,5,3,2,4,4,4,5,2,4,3,4,2,2,2,2,3,1,5,5,1,5,1,1,1,4,5,4,1,1,2,5,1,5,3,5,4,4,2,4,1,2,1,1,1,1,4,1,1.92307692307692,1,2,5,1,1,1,3,3,2,1,1,4,2,2,36.0555555555556,36.3333333333333,2,36.1944444444444,1,12.2222222222222,5,1,-1.75033435173296,-1.09747835247204,UCSB
1995,3,3,2,2,3,2,4,2,2,3,2,1,2,2,2,2,2.94444444444444,0,4.44444444444444,2.33333333333333,47,2.05555555555556, ,2.54545454545455,1,4,3,2,4,4,5,4,2,2,2,2,2,2,2,2,2,6,3,2,2,2,2,2,2,2,2,2,2,2,2,2,2,3,2,2,2,10:52:00,1.8,2,4,5,5,5,5,5,5,4,3,4,4,5,5,4,2,3,5,5,27,7,2,3,3,2,4,2,1,1,1,1,2,2,2,3,2,3,2,2,2,2,3,1,2,2,2,3,3,2,2,2,2,2,4,4,2,2.46153846153846,1,2,2,1, ,4,4,4,4,8,2,8,8,1, ,2,8,1, , ,1,1, ,2,Taiwanese American Student Association, , , , ,30, , , , ,7,7,7,7,7,7,7,7,3,4,4,4,4,2,2,4,2,4,4,2,4,5,2,2,4,4,4,5,5,4,4,4,2,2,2,2,4,4,2,4,2,2,4,2,4,2,2,2,4,4,4,4,4,4,4,4,4,4,4,2,4,4,4,4,4,2,2.53846153846154,3,3,3,2,2,2,2,3,2,3,2,4,3,3,36.3888888888889,36.9444444444444,2,36.6666666666667,1,9.44444444444444,5,1,-.397499595145461,-1.09747835247204,UCSB
 ,4,2,1,3,1,1,3,4,2,2,1,1,1,1,2,1,5.16666666666667,0,3.44444444444444,2.66666666666667,76,2.05555555555556, ,2.18181818181818,1,5,7,7,7,7,6,5,6,7,2,7,6,7,6,2,1,4,1,7,1,2,2,2,2,2,1,1,1,2,2,2,2,2,3,1,2,11:59:00,1.2,2,0,5,5,4,4,4,5,4,3,1,1,4,5,2,2,4,3,1,28,1.83333333333333,2.45454545454545,4,2,4,3,2,1,2,2,3,1,3,2,4,3,4,2,2,2,3,2,1,1,5,1,3,5,2,2,5,1,4,4,3,4,3.07692307692308,1,2,2,1, ,4,4,5, ,8,4,8,8,1, ,2,5,3,1,5,5,1, ,1, , , , , , , , , , ,3,2,1,1,2,2,3,7,4,5,4,5,4,1,2,5,1,5,2,4,5,5,3,5,5,5,5,5,3,3,4,3,1,2,1,2,5,5,1,5,1,2,2,3,5,3,4,2,5,3,5,2,4,5,3,2,4,5,3,2,4,3,2,2,5,1,1.76923076923077,2,1,3,1,2,2,2,2,2,2,1,4,1,2,36.5,37.1111111111111,4,36.8055555555556,1,10,5,1,1.40628008030453,-1.09747835247204,UCSB
1995,2,4,2,4,2,4,2,2,2,2,2,2,2,2,2,2,2,0,4.22222222222222,2.44444444444444,86,2,0,2.54545454545455,1,2,2,2,2,2,2,2,2,2,2,2,2,2,2,2,2,2,2,2,2,2,2,2,2,2,2,2,2,2,2,2,2,2,2,2,2, ,2,2,0,3,5,5,5,5,5,4,2,3,4,5,6,5,2,3,3,1,8,2.66666666666667,2.36363636363636,2,2,4,2,2,2,2,2,2,4,2,2,4,2,4,2,2,2,2,2,1,4,2,4,2,4,2,2,2,4,4,4,2,2,2.92307692307692,2,1,2,1, ,4,4,5, ,8,1,5,1,1, ,2,8,1, , ,1,1, ,1, , , , , , , , , , ,3,3,3,3,2,2,2,6,2,2,4,4,4,4,4,4,2,4,2,2,4,4,4,3,4,4,3,4,4,3,4,4,2,2,2,2,4,4,2,3,4,4,4,4,4,2,2,4,4,2,2,4,4,2,4,4,4,4,4,2,4,4,4,4,2,4,2.23076923076923,2,4,3,2,2,2,2,2,2,2,2,4,2,2,35.6111111111111,36.2777777777778,2,35.9444444444444,1,12.2222222222222,5,1,-1.16410595721171,-1.15402780956507,UCSB
1982,1,2,1,2,1,1,1,1,2,1,1,2,2,2,3,1,1.22222222222222,0,4,3.22222222222222,80,2, ,1.27272727272727,1,1,1,1,2,1,1,1,1,1,1,2,2,1,2,1,1,1,1,1,1,1,1,2,2,2,2,7,1,4,1,1,1,1,5,1,2, ,2,2,0,3,3,4,3,5,4,4,5,4,4,5,6,4,2,3,3,3,18,2.66666666666667,3.09090909090909,4,4,4,3,4,3,2,2,2,2,4,4,4,1,4,1,2,4,4,5,2,3,3,3,4,2,2,2,2,2,4,2,4,3,2.76923076923077,2,2,2,2,2,4,2,4,4,3,2,4,3,1, ,2,3,1, , ,4,1, ,1, , , , , , , , , , ,4,2,5,3,1,1,2,8,1,3,4,2,5,4,2,4,4,5,4,2,4,4,5,4,4,5,5,3,2,2,3,2,2,4,3,3,4,4,2,4,4,4,1,4,2,4,4,2,4,3,4,3,4,1,3,4,4,4,4,4,4,4,4,4,2,4,2.69230769230769,2,4,4,3,2,2,2,3,3,3,3,4,1,3,36.2777777777778,35.9444444444444,2,36.1111111111111,1,8.33333333333333,5,1,-1.79542884361921,-1.15402780956507,UCSB
1996,2,2,1,2,3,3,2,2,2,1,2,3,2,2,4,2,2.44444444444444,0,3.11111111111111,2.77777777777778,83,1.94444444444444, ,2,1,2,2,1,5,1,4,4,2,3,1,6,1,2,1,2,1,5,1,1,2,1,2,1,1,6,2,2,2,1,2,2,1,2,3,2,2,10:25:00,2.6,2,1,1,4,4,4,4,4,2,2,2,2,4,5,6,3,3,5,5,24,5.16666666666667,3.54545454545455,4,4,4,4,4,2,2,4,4,3,4,1,4,1,4,4,4,2,1,4,1,2,2,5,2,1,2,2,2,2,4,5,5,2,2.76923076923077,1,2,2,1, ,4,4,5, ,4,3,8,8,1, ,2,8,1, , ,1,1, ,2,Fraternity, , , , ,50, , , , ,6,5,5,5,5,5,5,6,3,2,4,4,4,4,4,3,4,4,3,3,4,4,3,2,4,4,4,4,4,4,4,4,2,2,2,4,4,4,2,2,2,2,2,2,4,3,3,2,4,3,4,4,4,2,4,4,4,4,4,2,4,4,3,4,2,2,3.15384615384615,3,4,5,2,2,2,2,4,2,4,4,4,4,3,36.6666666666667,37,2,36.8333333333333,1,13.3333333333333,5,1,-.80335002212171,-1.21057726665809,UCSB
1995,3,1,1,1,1,1,5,2,1,1,1,2,1,1,1,1,5.72222222222222,0,4.33333333333333,4.88888888888889,92,1.88888888888889, ,1.63636363636364,1,7,7,6,7,2,7,2,7,7,3,7,7,4,7,7,7,7,2,2,1,1,1,6,3,2,3,1,3,1,1,1,1,1,1,1,4, ,1.2,2,0,4,5,5,5,5,5,3,1,5,5,4,4,7,3,4,5,5,20,7,3.90909090909091,5,5,5,5,5,1,1,5,5,1,5,5,5,4,5,5,5,5,5,5,2,1,2,2,1,3,1,5,1,1,5,5,3,2,2.46153846153846,2,2,2,1, ,4,4,3,4,8,2,6,6,1, ,2,1,3,1,1,1,1, ,1, , , , , , , , , , ,7,7,7,7,7,7,7,8,2,1,5,3,5,1,3,4,5,5,2,1,2,5,5,5,5,5,1,5,4,4,4,1,1,3,2,1,5,5,5,5,3,4,1,5,3,4,1,1,5,3,5,4,5,5,4,5,5,5,5,1,5,5,5,5,1,5,3.30769230769231,4,5,5,4,2,1,2,4,3,2,5,5,1,5,36.7777777777778,36.7777777777778,2,36.7777777777778,1,13.8888888888889,5,1,1.85722499916703,-1.26712672375112,UCSB
1997,2,2,1,2,2,2,2,2,2,2,1,2,3,2,4,2,2.11111111111111,0,4.33333333333333,2,64,1.83333333333333, ,1.81818181818182,1,2,2,2,2,2,2,2,2,3,2,3,2,2,2,2,2,2,2,2,1,2,2,2,1,2,1,2,1,2,1,1,2,4,4,1,2, ,2.6,2,2,4,5,5,5,5,5,3,3,4,4,3,3,5,2,2,2,2,19,3.33333333333333,2,2,2,2,2,2,2,2,2,2,2,2,2,2,2,2,2,2,2,2,2,1,4,4,4,4,4,4,4,3,4,4,4,4,5,4,1,2,2,1, ,4,4,5, ,7,7,6,6,1, ,2,6,1, , ,1,1, ,1, , , , , , , , , , ,2,4,4,4,3,3,3,6,3,4,3,4,3,4,3,4,3,4,3,4,3,3,2,4,3,4,3,3,3,4,4,4,3,3,3,4,4,3,3,3,3,4,3,4,4,2,3,4,3,3,2,4,4,4,4,4,4,4,4,4,4,2,4,4,4,3,2.07692307692308,2,2,2,3,2,2,2,2,2,2,2,4,2,2,37,36.8333333333333,2,36.9166666666667,1,6.11111111111111,5,1,-1.07391697343921,-1.32367618084414,UCSB
1996,4,4,1,4,4,3,5,4,3,4,4,2,4,2,4,3,4.77777777777778,0,3.33333333333333,2.44444444444444,92,1.83333333333333, ,3.63636363636364,1,6,4,3,6,7,7,7,5,6,6,3,5,5,5,1,4,5,1,2,1,3,1,2,2,2,1,5,1,1,1,1,2,1,3,1,3, ,3,2,0,5,4,4,3,5,4,2,2,3,3,3,5,5,3,3,3,3,26,6,2.27272727272727,4,2,4,4,2,1,1,1,1,1,4,4,3,2,2,2,1,2,2,4,2,3,3,3,1,4,3,3,1,2,4,2,2,2,2.53846153846154,2,2,2,1, ,4,4,4,1,5,3,8,8,1, ,2,8,1, , ,2,1, ,2,Sorority, , , , ,30, , , , ,7,5,6,6,6,6,6,7,3,4,4,4,4,3,4,4,3,5,3,3,3,3,3,4,5,4,4,5,3,5,5,3,2,2,2,2,4,4,3,3,3,2,1,5,4,2,1,2,5,3,4,4,4,3,3,5,3,4,3,1,5,2,3,3,3,4,2.92307692307692,3,4,4,3,3,2,2,3,3,3,3,3,2,3,36.9444444444444,37.0111111111111,2,36.9777777777778,1,13.8888888888889,5,1,1.09061863710078,-1.32367618084414,UCSB
1996,2,3,1,2,1,1,4,2,2,1,1,2,2,2,2,2,2.55555555555556,0,3.77777777777778,2.88888888888889,64,1.77777777777778, ,1.81818181818182,1,2,2,1,5,5,3,2,2,2,1,3,1,5,2,2,2,5,1,1,1,2,2,1,1,1,2,2,2,2,2,1,1,3,5,1,2, ,2,2,0,4,4,4,4,4,4,4,2,4,4,5,7,5,2,2,4,6, ,5.33333333333333,2.27272727272727,4,2,2,4,1,2,2,2,2,2,2,2,4,2,4,2,2,4,2,4,1,4,3,4,2,4,2,4,4,4,4,3,4,4,3.53846153846154,2,2,2,1, ,4,4,5, ,3,3,8,8,2,3,2,8,1, , ,8,1, ,2,N/A,N/A,N/A,N/A,N/A,0,0,0,0,0,5,6,5,5,6,5,5,7,4,2,4,4,4,4,3,3,4,4,2,2,4,4,2,2,4,5,5,4,3,3,4,4,1,2,2,3,4,4,3,2,2,4,3,5,4,4,2,1,5,3,4,4,5,2,4,5,4,4,4,1,4,4,4,4,2,4,1.84615384615385,1,2,2,3,2,2,2,1,2,2,1,4,2,2,35.1666666666667,36.7777777777778,2,35.9722222222222,1,6.11111111111111,5,1,-.713161038349211,-1.38022563793717,UCSB
1995,3,2,5,1,3,4,5,1,1,3,2,3,1,1,1,1,5.55555555555556,0,4.55555555555556,4.11111111111111,87,1.72222222222222, ,2.72727272727273,1,7,7,2,7,7,7,1,7,7,1,6,7,5,7,7,7,7,1,1,1,3,1,1,1,3,1,7,3,1,1,1,2,1,1,1,1, ,1.4,2,4,3,5,5,5,5,5,5,5,3,3,5,4,7,2,3,6,6,21,6.83333333333333,4.45454545454545,5,5,5,5,5,3,3,5,3,5,5,3,4,3,5,4,3,5,5,5,2,4,3,1,1,3,2,4,1,4,5,3,1,5,2.84615384615385,2,2,2,1, ,4,4,3,4,7,1,5,5,1, ,2,3,3,1,3,1,2,1,1, , , , , , , , , , ,6,7,7,7,7,7,7,9,2,1,5,5,5,1,5,5,5,5,5,1,5,5,5,5,5,5,1,5,3,2,5,1,1,1,1,1,5,5,5,2,5,4,1,3,3,1,1,1,5,5,5,5,5,3,5,5,5,5,5,2,5,5,1,3,1,4,3,5,3,5,1,2,2,3,4,1,3,4,5,1,5,37,37,2,37,1,8.33333333333333,5,1,1.72194152350828,-1.43677509503019,UCSB
1996,2,2,1,2,2,2,2,4,2,2,2,2,4,2,3,2,2.61111111111111,0,4.88888888888889,2.88888888888889,45,1.66666666666667, ,2.09090909090909,1,3,2,2,5,5,2,2,2,2,1,2,2,3,3,2,2,5,2,2,1,2,2,2,1,2,2,2,1,2,2,1,2,2,2,1,1, ,2.6,2,8,4,5,5,5,5,5,5,4,5,5,5,4,5,5,5,3,5,48,5,3.09090909090909,4,4,4,4,4,2,2,2,2,2,4,2,4,2,4,2,2,2,4,4,1,2,1,3,2,3,1,1,1,2,3,2,2,3,2,2,2,2,1, ,4,4,5, ,4,1,7,5,1, ,2,5,3,1,5,3,1, ,2,VSA,Suitemates,Family,Friends,work,20,7,3,9,4,5,5,5,5,5,5,5,8,3,2,4,4,4,2,4,4,2,4,2,4,3,3,4,2,4,4,4,4,4,4,4,4,1,2,2,2,2,4,2,2,2,2,2,1,3,2,3,4,4,2,4,4,4,4,2,4,4,3,4,2,4,2,4,4,2,4,2.76923076923077,3,3,2,2,3,3,3,3,4,3,2,4,3,2,36.7777777777778,36.8888888888889,4,36.8333333333333,1,6.11111111111111,5,1,-.66806654646296,-1.49332455212322,UCSB
1994,3,2,1,2,2,2,2,2,4,2,2,2,2,2,3,4,1.94444444444444,0,4.77777777777778,3.44444444444444,71,1.66666666666667, ,2.18181818181818,1,6,2,1,2,4,1,1,1,1,1,1,2,2,4,1,2,1,2,2,1,2,1,2,1,3,1,1,3,1,1,2,1,4,2,1,1, ,2.6,2,2,3,5,5,5,5,5,5,3,5,5,3,4,4,3,4,1,4,21,6.83333333333333,2.81818181818182,4,4,4,4,2,1,1,1,4,2,4,4,5,4,4,2,2,3,3,4,1,2,2,5,3,5,3,3,5,2,3,5,5,5,3.69230769230769,2,2,2,1, ,4,4,5, ,4,2,4,4,1, ,2,1,3,1,8,1,1, ,1, , , , , , , , , , ,6,7,7,7,7,7,7,7,1,1,1,1,5,4,4,2,2,3,2,2,3,3,5,2,4,4,4,4,4,4,4,4,2,2,2,3,2,2,2,1,1,4,4,4,4,3,3,2,3,4,2,4,2,2,2,4,2,2,2,2,2,4,2,4,2,4,2.53846153846154,3,2,5,2,3,2,2,3,1,3,2,4,2,3,37.2222222222222,36.7222222222222,2,36.9722222222222,1,11.1111111111111,5,1,-1.20920044909796,-1.49332455212322,UCSB
1995,2,2,1,2,2,2,2,2,2,2,2,2,4,2,4,2,1.5,0,3.88888888888889,2,83,1.66666666666667, ,1.90909090909091,1,1,2,1,2,2,1,2,2,2,2,1,1,1,1,1,1,2,2,2,1,2,2,2,2,2,2,2,2,2,1,1,1,1,2,1,2,11:15:00,2.8,2,2,4,5,5,5,5,5,3,1,3,3,3,3,4,2,2,2,2,26,5.83333333333333,2.63636363636364,4,3,2,4,2,2,2,2,2,2,4,1,3,2,1,2,1,3,2,3,1,4,4,5,5,5,4,3,4,5,4,5,5,5,4.46153846153846,2,2,2,1, ,4,4,4,1,5,2,8,8,2,2,2,2,3,1,6,1,1, ,1, , , , , , , , , , ,5,6,6,6,7,5,5,9,2,1,2,4,4,1,2,3,4,4,4,2,3,3,2,2,4,3,3,4,4,4,4,4,2,2,3,1,4,2,2,4,2,2,3,4,4,4,4,1,2,3,3,4,3,2,4,4,2,2,4,2,2,2,4,4,2,4,2.61538461538462,2,2,4,2,3,2,4,2,3,2,3,4,3,2,37,37.2777777777778,2,37.1388888888889,1,11.1111111111111,5,1,-1.56995638418796,-1.49332455212322,UCSB
1995,3,4,2,3,3,2,2,3,2,2,2,2,2,2,2,1,2.44444444444444,0,5,3.22222222222222,69,1.61111111111111, ,2.54545454545455,1,5,4,1,2,2,4,4,2,3,1,4,1,2,2,1,1,4,1,2,1,2,1,1,1,1,2,2,1,1,1,1,2,4,4,1,1,11:07:00,1.8,2,4,5,5,5,5,5,5,5,5,5,5,5,5,6,3,3,1,1,27,4.33333333333333,2.90909090909091,4,4,4,4,4,1,1,2,2,2,4,2,3,2,4,4,4,2,4,4,1,3,4,3,4,1,2,3,2,1,5,5,4,4,3.15384615384615,2,2,2,1, ,4,4,5, ,6,4,6,6,2,2,2,8,1, , ,3,1, ,2,AXO, , , , ,7, , , , ,3,4,5,4,5,5,5,7,3,1,2,3,5,3,3,2,4,2,1,3,1,1,2,4,5,4,3,5,3,4,4,3,1,1,2,4,1,2,3,1,3,2,1,5,4,4,1,1,3,3,3,4,2,3,4,4,2,4,3,3,2,4,2,3,2,4,2.53846153846154,3,3,5,2,2,2,2,2,2,2,3,5,2,3,35.8333333333333,36.8333333333333,2,36.3333333333333,1,8.33333333333333,5,1,-.80335002212171,-1.54987400921624,UCSB
1997,2,3,2,2,3,2,3,2,3,2,2,3,2,2,2,2,2.38888888888889,0,4.55555555555556,3.66666666666667,80,1.61111111111111, ,2.36363636363636,1,2,2,1,2,1,2,4,1,2,1,2,2,4,5,2,7,2,1,2,1,6,1,1,1,1,1,1,1,1,1,1,1,3,3,1,2, ,2.2,2,2,4,4,5,4,5,5,5,5,4,4,4,6,5,5,3,4,6,26,4,4,5,5,5,5,5,2,2,3,4,3,5,4,4,4,4,3,2,4,4,4,1,3,3,4,2,4,2,3,2,5,4,4,4,3,3.30769230769231,2,2,2,1, ,4,4,4,1,4,2,3,3,2,7,2,8,1, , ,8,1, ,1, , , , , , , , , , ,4,5,4,3,4,4,4,8,4,2,4,4,4,4,4,3,3,4,4,2,3,4,4,4,4,5,5,5,3,3,4,4,1,1,1,2,4,4,3,2,2,4,2,5,4,5,1,2,3,4,2,3,4,2,3,4,5,5,5,2,5,4,3,3,3,4,3.07692307692308,2,3,5,3,3,3,3,3,2,4,4,5,2,3,37.0555555555556,36.7222222222222,2,36.8888888888889,1,8.33333333333333,5,1,-.84844451400796,-1.54987400921624,UCSB
1995,4,4,1,4,4,1,2,1,2,2,1,3,3,1,2,2,1.61111111111111,0,4.11111111111111,2.44444444444444,64,1.38888888888889, ,2.36363636363636,1,1,1,1,1,1,1,1,1,3,1,7,1,1,1,1,1,4,1,1,1,1,1,1,1,1,1,7,1,1,1,1,1,2,1,1,1, ,2.2,2,0,3,5,5,5,5,5,5,2,2,3,4,6,4,2,2,4,3,33,5.5,1.72727272727273,4,2,1,4,2,1,1,1,1,1,1,2,2,3,2,2,1,3,2,5,1,3,4,4,4,4,3,4,3,2,4,5,4,3,3.61538461538462,2,2,2,1, ,4,2,4,4,8,8,5,5,2,1,2,5,3,1,8,3,1, ,1, , , , , , , , , , ,6,5,5,5,6,6,6,9,3,2,3,4,4,4,3,4,4,3,2,2,3,4,4,3,5,5,5,5,5,5,5,3,1,1,1,3,4,4,2,4,2,1,4,5,5,3,2,2,2,2,4,3,3,1,5,5,5,4,4,1,4,4,4,4,4,1,2.38461538461538,3,3,4,2,2,2,3,2,1,2,3,5,2,2,36.7222222222222,37,2,36.8611111111111,1,6.11111111111111,5,1,-1.47976740041546,-1.77607183758835,UCSB
 ,1,2,1,1,1,1,1,1,1,1,1,1,3,1,1,2,1.16666666666667,0,4.88888888888889,2.77777777777778,71,1.27777777777778, ,1.09090909090909,1,1,1,1,1,1,1,1,1,1,1,2,1,1,1,1,1,3,1,1,1,1,1,1,1,1,1,1,1,1,1,1,1,6,1,1,1, ,1.6,2,0,5,5,5,5,5,5,5,4,5,5,5,8,6,4,4,6,7,49,6.33333333333333,2.09090909090909,4,4,4,4,1,1,1,1,1,1,1,1,4,2,4,4,1,1,4,4,1,4,5,4,3,3,4,2,3,4,4,5,2,5,3.69230769230769,2,2,2,1, ,4,4,4,1,4,1,6,6,1, ,2,8,3,1,4,1,2,8,2,Mentorship,Kickboxing,Roommates,Best friends,Family,7,7,2,2,4,7,6,6,6,7,6,6,10,4,2,2,4,5,3,4,4,2,5,2,1,5,5,4,2,5,5,4,5,5,5,4,4,1,1,3,2,4,2,2,4,2,5,1,5,5,4,4,2,2,2,4,2,2,4,5,5,5,4,4,2,2,4,4,2,4,4,2.07692307692308,1,3,2,2,2,2,2,2,2,2,2,3,2,3,37,36.8888888888889,2,36.9444444444444,1,7.77777777777778,5,1,-1.84052333550546,-1.8891707517744,UCSB
1994,1,1,1,1,1,2,1,1,2,2,1,1,1,1,3,1,2.94444444444444,0,4.88888888888889,3.33333333333333,57,1.05555555555556, ,1.27272727272727,1,3,3,3,2,2,6,5,3,3,1,3,1,3,2,4,6,2,1,2,1,1,1,1,1,1,1,1,1,1,1,1,1,1,1,1,1, ,1.4,2,2,5,5,4,5,5,5,5,5,5,5,3,3,5,2,3,3,2,22,5.16666666666667,2.81818181818182,4,4,4,4,3,1,2,2,2,1,4,4,4,2,4,3,3,2,4,4,1,4,1,4,2,4,4,3,1,3,4,3,5,4,3.23076923076923,1,2,2,1, ,4,2,4,1,8,1,8,8,1, ,2,6,3,1,7,1,1, ,1, , , , , , , , , , ,5,6,5,4,6,5,5,8,3,1,4,5,4,2,4,5,4,4,4,1,4,3,4,2,4,4,4,4,4,4,4,4,2,2,2,1,5,3,3,4,2,2,2,4,4,4,2,2,2,5,2,2,2,3,3,4,2,2,3,2,4,3,3,3,1,3,2.30769230769231,2,2,3,1,3,1,3,2,3,2,2,4,3,3,36.0555555555556,36.3888888888889,2,36.2222222222222,1,6.11111111111111,5,1,-.397499595145461,-2.1153685801465,UCSB
1995,3,3,1,2,1,1,3,3,2,1,3,3,3,2,3,3,3.83333333333333,2,4.77777777777778,3.55555555555556,81,3.66666666666667, ,2.09090909090909,2,3,3,5,4,3,2,3,4,4,4,5,3,4,4,3,3,6,6,3,4,5,4,3,4,3,4,4,7,3,1,2,4,5,4,3,3,10:31:52,2.8,2,3,5,5,5,5,5,5,5,3,5,5,4,5,7,6,6,6,6,29,5.5,3.63636363636364,4,5,4,4,4,2,4,4,2,3,4,4,4,3,5,2,2,3,4,5,1,4,4,3,5,4,2,4,2,3,5,4,2,5,3.61538461538462,2,2,2,1, ,4,4,5, ,4,2,8,8,1, ,2,4,3,1,4,1,2,2,2,Service learning,zta, , , ,1,5, , , ,4,5,6,6,7,5,6,8,2,2,2,4,4,4,4,5,5,2,2,3,2,2,5,5,5,5,5,4,3,4,2,3,2,1,4,4,3,4,4,3,4,3,4,4,3,2,1,4,4,4,4,5,3,2,5,5,4,5,3,2,4,4,4,4,2,3,3,3,4,4,3,3,3,3,3,3,3,2,5,2,3,36.9444444444444,37.0555555555556,2,37,1,14.4444444444444,5,1,.459870163592045,.52610985254702,VCU
1995,1,3,1,3,3,1,2,3,3,1,1,1,1,2,3,4,1,0,4.11111111111111,3.55555555555556,94,1, ,2,1,1,1,1,1,1,1,1,1,1,1,1,1,1,1,1,1,1,1,1,1,1,1,1,1,1,1,1,1,1,1,1,1,1,1,1,1,10:48:00,2.2,2,30,5,5,4,4,5,5,4,3,4,3,3,2,2,1,2,3,3,25,4.83333333333333,2.81818181818182,4,4,3,4,3,2,2,2,2,2,3,4,5,3,4,3,2,4,4,3,1,5,5,5,5,5,5,4,4,3,5,5,5,4,4.61538461538462,2,2,1,1, ,4,4,4,1,8,5,6,4,1, ,1, ,3,2,4,1,2,3,1, , , , , , , , , , ,3,6,6,6,4,4,4,8,1,5,3,1,5,5,3,3,4,4,2,1,2,3,2,2,4,5,3,5,5,5,5,5,3,3,2,2,1,2,2,1,5,3,2,5,3,4,2,3,2,2,2,3,2,2,3,5,4,4,4,2,4,3,3,4,2,1,2.30769230769231,3,4,2,2,1,2,2,2,2,2,4,4,2,2,36.8888888888889,36.5555555555556,2,36.7222222222222,1,13.3333333333333,5,1,-1.77997804540063,-1.76292950590317,VCU
1995,1,1,1,1,1,1,1,1,2,1,1,2,1,1,2,1,1,0,4.77777777777778,1.55555555555556,94,1.72222222222222, ,1.09090909090909,1,1,1,1,1,1,1,1,1,1,1,1,1,1,1,1,1,1,1,1,2,4,1,1,1,1,1,1,2,2,2,1,1,4,4,1,1,9:41:35,1.4,2,2,5,5,5,5,5,5,5,4,4,5,4,3,4,2,2,3,2,18,1.66666666666667,2,4,3,2,2,2,1,1,2,1,1,3,1,3,1,3,1,1,1,2,1,2,5,5,5,5,5,5,5,5,5,5,5,5,5,5,2,2,2,1, ,4,4,5, ,8,4,8,7,1, ,2,5,1, , ,1,1, ,2,Society of Human Resources Management, , , , ,1, , , , ,3,1,1,1,2,2,2,6,3,4,1,4,5,3,2,2,2,4,1,2,1,1,4,4,4,4,4,4,4,3,4,4,1,1,1,3,3,2,2,1,4,3,1,5,4,4,1,1,3,3,3,2,1,1,1,4,1,2,1,4,1,1,1,1,3,2,1.53846153846154,2,2,2,1,1,1,2,2,2,1,2,4,1,1,36.7777777777778,36.7222222222222,2,36.75,1,13.3333333333333,5,1,-1.77997804540063,-1.14298134632291,VCU
1996,1,1,1,2,1,1,1,1,1,1,1,2,3,3,1,5,2.16666666666667,0,1.22222222222222,2.66666666666667,81,2.61111111111111, ,1.09090909090909,1,2,4,2,2,2,2,2,2,2,2,2,2,2,2,2,2,3,2,2,2,2,2,2,3,3,4,3,2,3,2,2,2,6,2,2,3,9:30:09,2.8,2,0,5,1,1,1,1,1,1,3,1,1,3,3,3,2,3,4,1,13,3.83333333333333,1.63636363636364,3,1,3,3,1,1,1,1,1,1,2,2,3,2,2,3,2,2,4,4,2,4,4,4,4,2,3,2,4,5,4,5,4,4,3.76923076923077,2,2,2,1, ,4,4,5, ,3,2,5,4,2,1,2,4,1, , ,1,1, ,1, , , , , , , , , , ,3,5,4,4,4,3,2,7,1,3,4,4,4,3,3,3,3,4,3,2,2,1,4,4,4,3,2,4,4,4,3,3,2,2,2,2,4,3,3,4,2,3,2,4,3,4,2,2,3,3,4,2,2,3,4,4,3,3,2,4,3,2,2,2,3,1,1.92307692307692,2,2,3,1,1,1,2,2,2,2,3,5,2,2,36.7777777777778,36.8333333333333,2,36.8055555555556,1,14.4444444444444,5,1,-.857687606403647,-.379968226839515,VCU
1995,1,1,1,4,1,1,1,1,1,1,2,2,2,1,2,2,1.44444444444444,0,4.88888888888889,1.88888888888889,87,4.83333333333333, ,1.36363636363636,1,2,1,1,2,1,1,2,3,2,1,2,2,1,1,1,1,1,1,1,2,7,5,3,7,7,6,6,3,6,2,2,6,6,6,6,6,11:06:35,1.8,2,1,5,4,5,5,5,5,5,5,5,5,5,7,6,7,7,5,1,33,4.33333333333333,2.81818181818182,4,4,4,5,4,1,1,1,1,1,5,1,3,1,4,1,1,1,4,1,2,1,4,2,2,1,1,2,2,3,4,2,5,2,2.38461538461538,2,2,2,1, ,4,4,5, ,3,3,7,7,1, ,2,5,3,5,7,1,2,5,1, , , , , , , , , , ,6,2,4,5,5,4,5,8,4,2,1,4,3,4,3,3,5,2,2,4,2,1,4,4,4,1,2,1,5,3,2,5,3,2,4,4,1,1,4,1,5,3,4,5,4,4,1,1,3,4,2,5,1,2,4,4,1,1,1,2,4,1,1,2,2,4,3.38461538461538,5,4,5,2,2,2,3,4,2,3,4,5,4,4,36.7222222222222,36.5555555555556,2,36.6388888888889,1,13.8888888888889,5,1,-1.42862930673511,1.52756457186898,VCU
1994,1,5,1,1,1,1,1,1,1,1,1,2,1,2,2,1,1.27777777777778,0,5,3.55555555555556,52,1.11111111111111, ,1.36363636363636,1,2,1,1,2,1,2,2,1,1,1,1,1,1,1,1,1,2,1,1,1,3,1,1,1,1,1,1,1,1,1,1,1,1,1,1,1,10:30:31,1.6,2,0,5,5,5,5,5,5,5,5,5,5,4,5,6,2,2,1,1,19,4.83333333333333,3.36363636363636,5,4,5,4,3,2,2,3,2,2,5,4,4,4,4,3,3,4,2,4,1,4,4,5,5,4,3,4,4,3,5,4,4,3,4,2,2,2,1, ,4,4,5, ,8,5,5,4,2,1,2,5,1, , ,1,2,3,1, , , , , , , , , , ,4,6,4,5,5,5,5,8,2,3,5,4,4,2,4,4,3,5,4,3,3,5,3,2,3,5,4,5,5,4,4,4,1,1,3,1,4,4,2,4,2,2,2,5,4,4,1,1,4,4,4,3,3,4,3,5,3,3,4,2,3,2,2,2,3,2,2.38461538461538,4,2,3,4,3,2,2,2,2,2,1,5,2,2,36.7222222222222,35.6666666666667,2,36.1944444444444,1,7.22222222222222,5,1,-1.56038508373468,-1.66755286596775,VCU
1993,4,4,1,4,4,1,4,2,4,2,2,2,2,3,4,2,2.22222222222222,0,4.44444444444444,1.66666666666667,81,3.94444444444444, ,2.90909090909091,1,2,2,2,2,2,5,1,2,7,2,2,2,1,1,2,2,2,1,3,3,6,3,5,4,5,3,6,4,2,3,3,5,3,6,3,4,10:36:24,2.6,2,8,5,5,5,4,5,5,5,4,4,3,5,4,6,4,2,2,4,45,3.33333333333333,1.72727272727273,3,3,3,3,1,1,1,1,1,1,1,1,3,1,1,1,1,1,2,4,1,2,2,2,2,3,2,3,1,2,4,4,4,3,2.61538461538462,2,2,2,1, ,4,4,5, ,4,2,5,5,1, ,2,8,3,1,8,7,2,8,2,LVRS,DEM, , , ,7,2, , , ,2,4,3,3,4,4,3,8,5,4,2,4,4,2,3,2,2,4,3,2,3,3,4,2,4,4,5,4,4,4,3,3,2,2,3,4,4,3,2,3,2,2,2,4,4,2,2,2,3,2,2,2,2,2,4,4,4,3,4,3,3,3,4,4,3,4,2.53846153846154,2,2,3,4,2,3,3,2,2,3,3,4,2,2,36.6111111111111,36.6111111111111,2,36.6111111111111,1,14.4444444444444,5,1,-.813769014070457,.764551452385583,VCU
1987,4,4,2,2,4,2,4,2,4,2,2,2,3,2,3,2,3.72222222222222,0,3.44444444444444,2.44444444444444,94,2.88888888888889, ,2.90909090909091,1,6,5,5,3,2,6,3,2,3,5,2,2,3,3,5,4,6,2,4,3,6,2,3,2,3,3,2,2,3,2,2,2,3,3,4,3,10:14:05,2.4,2,4,5,4,4,4,3,4,3,3,3,3,5,6,5,5,5,2,1,18,6.33333333333333,2.72727272727273,4,3,3,4,3,1,1,1,5,3,2,1,4,2,4,1,1,3,3,3,1,4,4,4,4,4,3,4,2,3,3,4,5,3,3.61538461538462,2,2,1,1, ,4,2,4,2,3,1,2,2,1, ,2,5,3,8,1,1,1, ,1, , , , , , , , , , ,7,7,6,6,6,6,6,8,2,2,3,3,5,3,3,4,4,3,4,2,1,3,4,4,3,4,4,4,4,4,4,4,4,4,4,4,2,4,3,2,2,3,3,4,4,4,3,2,3,4,2,4,3,4,3,4,4,4,4,3,4,3,4,4,2,2,3.07692307692308,4,3,4,2,3,3,2,2,3,3,3,4,4,4,36.6111111111111,36.7222222222222,2,36.6666666666667,1,13.3333333333333,5,1,.372032978925666,-.141526627000953,VCU
1995,2,2,1,2,2,1,1,2,4,1,2,2,2,2,2,2,1.38888888888889,0,4.66666666666667,1.33333333333333,81,1, ,1.81818181818182,1,1,1,1,1,1,2,1,1,1,3,1,1,1,1,1,1,5,1,1,1,1,1,1,1,1,1,1,1,1,1,1,1,1,1,1,1,9:38:49,2,2,1,5,5,5,5,5,5,5,4,4,4,3,4,4,3,3,4,4,17,2.16666666666667,1.27272727272727,4,1,1,1,1,1,1,1,1,1,1,1,1,1,1,1,1,1,1,4,1,5,5,5,5,4,5,5,5,5,5,5,5,5,4.92307692307692,2,2,2,1, ,4,4,5, ,3,1,6,6,2,1,2,4,3,1,1,1,2,1,1, , , , , , , , , , ,2,2,3,2,2,2,2,9,2,2,2,4,4,4,2,4,2,4,1,1,1,2,4,2,4,4,4,4,4,4,4,4,2,2,2,4,1,1,4,2,2,2,2,5,4,4,2,2,4,2,4,4,2,2,4,4,2,2,4,4,4,2,2,4,4,2,3.46153846153846,4,4,5,2,2,3,4,4,3,3,4,5,2,5,36.5,36.6111111111111,2,36.5555555555556,1,14.4444444444444,5,1,-1.4725478990683,-1.76292950590317,VCU
1994,2,2,1,2,3,2,3,2,2,2,1,2,4,2,3,3,1.77777777777778,0,4.22222222222222,3.44444444444444,81,2.27777777777778, ,2,1,1,2,2,1,2,2,1,1,1,1,3,2,1,2,1,5,2,2,2,3,2,2,2,2,3,2,2,2,3,2,2,2,2,3,3,2,10:55:11,2.8,2,0,5,4,5,5,5,5,4,3,4,3,5,6,5,2,3,2,2,25,3,2.45454545454545,3,3,2,2,3,2,2,3,2,2,3,3,3,3,4,4,3,4,3,4,1,3,4,5,3,4,2,3,2,3,3,5,4,4,3.46153846153846,2,2,2,1, ,4,2,4,1,4,2,6,6,2,2,2,7,1, , ,1,2,3,2,sorority, , , , ,12, , , , ,4,2,2,3,3,4,3,9,3,1,1,1,5,4,3,4,5,2,2,1,3,2,4,3,4,3,3,4,4,5,4,4,2,2,3,4,1,3,4,1,4,3,2,5,5,3,4,2,2,2,2,3,3,2,2,3,4,3,3,3,4,3,4,3,2,2,2.23076923076923,2,3,2,2,2,2,3,2,2,2,2,4,2,3,36.2777777777778,36.4444444444444,2,36.3611111111111,1,14.4444444444444,5,1,-1.16511775273597,-.666098146645789,VCU
1995,5,5,1,4,2,5,4,5,5,5,2,2,3,2,3,3,3.55555555555556,0,4.66666666666667,3.55555555555556,89,3.22222222222222, ,3.90909090909091,1,3,3,3,5,6,5,2,2,3,5,2,3,5,3,3,6,3,2,5,3,7,2,2,2,1,3,2,2,3,1,2,2,7,7,2,5,10:56:36,2.6,2,36,5,5,5,5,5,5,5,2,5,5,5,7,5,1,5,6,6,23,4.83333333333333,3.45454545454545,4,4,4,4,4,2,2,2,4,4,4,4,4,4,4,2,2,4,4,4,2,5,5,5,2,4,3,3,2,3,5,5,3,5,3.84615384615385,2,2,4,1, ,3,3,5, ,5,3,6,6,1, ,2,8,3,1,8,1,1, ,1, , , , , , , , , , ,7,6,4,3,3,6,6,7,3,2,4,4,4,5,5,3,5,5,2,1,2,4,5,5,2,5,5,4,4,4,3,3,1,1,3,2,4,4,4,5,2,4,5,5,5,4,2,2,4,2,5,4,1,1,4,5,5,2,4,1,4,4,2,4,1,2,4.15384615384615,4,5,5,4,5,4,5,5,4,2,4,5,3,4,35.9444444444444,36.2777777777778,2,36.1111111111111,1,11.6666666666667,5,1,.240277201926096,.144603292805322,VCU
1993,2,2,2,2,2,2,2,2,2,3,2,1,1,2,4,2,2.16666666666667,0,3.66666666666667,1.44444444444444,91,2.61111111111111, ,2.09090909090909,1,2,3,2,2,2,1,1,2,2,1,2,4,5,3,2,2,2,1,2,3,2,3,3,2,4,2,2,2,2,3,2,2,4,4,2,3,11:02:06,2,2,1,5,4,4,4,4,4,3,3,4,3,1,1,3,1,3,3,1,11,3.5,1.63636363636364,3,1,2,2,1,1,1,1,3,1,2,1,2,1,2,1,1,2,1,2,2,4,3,2,2,4,3,4,3,4,3,5,4,4,3.46153846153846,1,2,2,1, ,4,4,5, ,8,2,3,3,1, ,2,8,1, , ,1,1, ,1, , , , , , , , , , ,3,3,3,4,4,4,5,6,2,2,4,3,3,2,2,2,2,4,2,2,3,4,3,3,4,3,3,4,3,4,4,3,2,2,3,3,4,4,3,3,2,3,1,5,4,3,4,3,2,2,4,3,3,3,3,3,2,2,2,4,3,2,2,4,4,2,2.15384615384615,2,3,2,2,3,2,2,2,2,2,2,2,2,2,35.4444444444444,36,2,35.7222222222222,1,14.4444444444444,5,1,-.857687606403647,-.379968226839515,VCU
1991,4,5,4,1,5,5,5,5,5,4,3,2,5,1,5,1,6.33333333333333,1,3.88888888888889,5,81,3,2,4.18181818181818,1,7,7,7,7,7,7,7,7,1,7,1,7,7,7,7,7,7,7,7,1,7,1,7,7,7,1,1,1,1,1,1,7,1,1,1,1,10:59:07,2.8,2,2,5,5,4,4,4,4,5,3,2,4,2,3,4,3,3,5,5,13,6.66666666666667,5,5,5,5,5,5,5,5,5,5,5,5,5,5,5,5,5,5,5,5,5,2,1,1,1,1,5,1,5,1,1,5,1,1,5,2.23076923076923,1,1,2,1, ,4,4,5, ,3,2,4,4,1, ,2,8,1, , ,2,1, ,1, , , , , , , , , , ,5,7,7,7,7,7,7,6,2,3,3,3,3,3,3,3,3,5,5,5,5,5,5,5,5,5,5,5,5,5,5,5,5,5,5,3,5,5,5,5,5,5,5,5,5,5,5,5,5,5,5,5,5,5,5,5,5,5,5,5,5,5,5,5,5,5,2.84615384615385,5,5,5,1,1,1,1,5,1,1,5,5,1,5,34.1111111111111,36.5555555555556,4,35.3333333333333,1,14.4444444444444,5,1,2.43620681858558,-.0461499870655281,VCU
1994,4,4,1,4,3,4,2,4,4,1,2,3,2,2,2,2,3.77777777777778,0,4,3.55555555555556,94,2.5, ,3,1,4,4,3,3,3,6,4,5,4,2,3,3,6,5,3,2,6,2,2,2,3,2,2,3,2,2,3,3,3,1,2,5,5,2,1,2,10:55:38,2.2,2,1,4,5,4,4,5,5,3,3,4,3,4,3,4,3,3,3,3,12,2.33333333333333,2.90909090909091,4,4,4,4,2,2,2,4,2,2,2,2,4,2,4,4,4,4,4,4,1,2,2,4,2,3,5,3,2,3,4,4,4,3,3.15384615384615,2,2,2,1, ,4,4,5, ,3,2,3,3,2,1,2,3,1, , ,1,1, ,1, , , , , , , , , , ,2,3,3,2,2,2,3,7,1,2,2,2,4,4,2,2,4,4,1,1,2,2,4,2,4,5,3,4,4,4,2,2,4,2,2,4,1,2,4,2,1,2,4,5,3,2,2,2,4,4,4,4,2,2,2,4,4,2,4,3,4,4,4,4,2,4,2.76923076923077,3,3,4,3,2,3,2,4,2,2,4,4,2,2,37.2222222222222,37.2222222222222,4,37.2222222222222,1,13.3333333333333,5,1,.415951571258855,-.47534486677494,VCU
1995,4,4,2,4,2,3,4,3,5,2,2,2,3,2,2,3,3.27777777777778,0,5,2.66666666666667,52,4.72222222222222, ,3.18181818181818,1,2,3,4,3,3,5,5,3,3,2,4,3,2,2,4,4,4,3,7,5,7,4,5,5,5,4,5,4,4,3,4,6,4,4,5,4,11:07:25,2.4,2,4,4,5,5,5,5,5,5,5,5,5,3,4,4,1,3,1,1,22,5.83333333333333,2.81818181818182,4,4,4,4,3,2,2,2,1,2,3,3,4,2,3,2,3,3,2,2,2,5,4,1,2,2,3,3,2,1,4,5,3,4,3,2,2,2,1, ,4,4,5, ,1, ,2,2,2,1,2,6,3,1,5,2,1, ,2,BAC, , , , ,6, , , , ,7,6,6,6,5,5,5,7,2,1,2,2,5,4,4,5,3,2,2,3,4,3,3,4,4,5,5,4,5,4,3,3,2,1,3,5,1,2,4,2,3,2,2,5,4,3,4,2,3,4,4,3,2,1,3,4,2,3,3,2,4,3,4,3,2,4,3.46153846153846,3,5,5,3,3,3,4,4,3,3,4,5,3,2,37.1111111111111,37.0555555555556,2,37.0833333333333,1,7.22222222222222,5,1,.0206842402601478,1.43218793193356,VCU
1995,2,3,2,3,2,2,2,2,4,2,2,2,2,2,3,3,2.38888888888889,0,4,3,91,2.22222222222222, ,2.36363636363636,1,2,2,2,4,2,3,3,2,2,3,2,2,2,3,2,2,2,3,2,2,2,2,3,2,3,3,2,2,2,2,2,3,2,2,2,2,10:54:58,2.4,2,6,4,4,4,4,4,4,4,4,4,4,4,4,1,1,1,1,1,15,2.33333333333333,3,3,3,3,3,3,3,3,3,3,3,3,3,3,3,3,3,3,3,3,3,1,3,4,3,4,2,3,2,4,4,4,5,4,3,3.46153846153846,2,2,2,1, ,4,4,5, ,4,1,7,7,2,1,2,3,1, , ,1,1, ,1, , , , , , , , , , ,3,3,2,2,2,2,2,7,2,4,2,2,4,3,5,3,3,3,2,2,3,3,4,4,4,4,4,4,4,4,3,3,2,2,3,3,3,3,2,2,2,2,2,4,4,4,2,2,4,4,4,3,3,2,3,4,4,3,4,3,4,3,3,3,4,3,3,3,3,3,3,3,3,3,3,3,3,3,3,3,3,37.1111111111111,37.4444444444444,4,37.2777777777778,1,14.4444444444444,5,1,-.682013237070888,-.713786466613501,VCU
1993,2,4,4,2,2,2,4,2,2,4,4,3,2,4,4,3,2.94444444444444,0,3.33333333333333,3,68,3.66666666666667, ,2.90909090909091,1,4,2,4,2,2,6,2,2,4,2,2,3,4,2,2,4,4,2,4,3,3,4,4,4,2,3,4,3,4,4,4,2,5,6,3,4,10:05:42,3.2,2,1,4,4,4,4,4,4,4,2,2,2,5,4,2,1,1,1,2,31,2.83333333333333,3.36363636363636,3,4,4,3,4,2,4,4,3,3,3,3,2,2,3,2,3,4,4,4,1,2,5,3,4,2,2,3,2,3,3,3,3,2,2.84615384615385,1,2,2,1, ,4,4,5, ,8,5,8,3,2,2,2,5,3,2,5,1,2,4,2,Caver Promise, , , , ,4, , , , ,2,3,3,3,3,3,3,9,2,4,2,3,3,2,4,3,3,4,2,2,3,2,2,4,4,4,3,4,4,4,4,4,2,2,3,3,2,2,2,2,4,2,2,4,3,3,4,4,4,4,4,3,4,2,4,4,4,4,4,3,3,3,3,3,3,3,2.84615384615385,3,3,3,3,3,3,2,3,2,3,3,3,3,3,37.0555555555556,37.6111111111111,2,37.3333333333333,1,10.5555555555556,5,1,-.24282731373899,.52610985254702,VCU
1994,3,3,3,3,3,3,3,3,3,3,3,3,3,3,3,3,3.83333333333333,0,4.88888888888889,3,86,4, ,3,1,1,4,4,4,4,4,4,4,4,4,4,4,4,4,4,4,4,4,4,4,4,4,4,4,4,4,4,4,4,4,4,4,4,4,4,4,10:20:33,3,2,0,4,5,5,5,5,5,5,5,4,5,5,7,6,5,5,5,1,29,4,3,3,3,3,3,3,3,3,3,3,3,3,3,3,3,3,3,3,3,3,3,1,4,5,4,5,5,3,4,5,5,5,5,5,1,4.30769230769231,2,2,2,1, ,4,4,4,4,8,3,3,3,2,2,2,8,3,1,8,3,1, ,1, , , , , , , , , , ,4,4,4,4,4,4,4,9,2,4,2,2,5,2,5,5,5,4,2,1,4,3,3,3,3,5,2,5,5,3,5,5,2,2,3,2,3,3,3,3,4,1,3,5,5,2,1,2,4,5,3,4,4,3,4,4,5,3,4,4,4,3,3,3,3,3,2.76923076923077,3,3,3,3,3,2,2,3,3,2,3,3,3,3,37,37,2,37,1,7.22222222222222,5,1,.459870163592045,.812239772353295,VCU
1993,3,4,1,3,4,1,3,3,2,3,4,2,3,2,3,2,5.88888888888889,0,4.66666666666667,2.11111111111111,81,2.94444444444444, ,2.81818181818182,1,7,6,7,7,7,7,6,6,1,7,4,6,7,5,5,7,6,5,3,2,4,2,4,2,4,2,4,5,1,1,5,2,2,2,1,7,14:53:12,2.4,2,0,4,4,4,4,5,5,5,5,5,5,3,3,4,4,4,4,4,16,5.5,3.36363636363636,5,4,4,4,3,2,3,3,4,1,4,2,4,1,2,1,1,2,2,4,1,3,2,5,5,3,4,3,2,1,4,5,3,3,3.30769230769231,2,2,2,1, ,4,4,5, ,5,2,3,3,1, ,2,8,3,1,4,1,1, ,1, , , , , , , , , , ,7,6,5,5,5,5,5,7,2,3,3,2,4,3,3,3,3,4,4,2,2,3,4,5,4,5,3,3,3,2,4,3,2,3,3,3,2,3,3,3,4,4,1,3,3,3,3,2,3,4,3,2,1,3,3,5,3,3,3,3,5,3,4,3,5,4,3.76923076923077,4,4,5,3,3,4,4,5,3,3,4,4,3,4,36.9444444444444,37.0555555555556,2,37,1,14.4444444444444,5,1,2.08485807992006,-.0938383070332403,VCU
1993,1,2,2,4,1,2,2,2,2,2,2,4,1,3,2,4,2.33333333333333,0,3.44444444444444,3.66666666666667,94,3.66666666666667, ,2,1,4,2,2,2,2,2,2,2,2,2,6,2,2,2,2,2,2,2,4,5,5,2,5,6,2,2,2,3,5,6,2,2,6,6,1,2,11:18:37,2.8,2,16,4,5,5,4,5,4,2,1,1,4,1,1,4,1,3,4,3, ,3.5,1.81818181818182,4,4,1,2,1,1,2,2,1,1,1,2,3,2,4,5,5,4,4,4,1,3,4,4,5,2,5,2,2,4,5,3,3,5,3.61538461538462,2,2,2,1, ,4,4,5, ,8,5,8,8,2,1,2,8,1, , ,3,1, ,2,NAACP,Tau Sigma, , , ,0,0, , , ,6,3,2,4,2,4,2,7,3,4,4,4,4,4,1,4,4,4,2,2,4,3,4,2,4,4,2,2,3,3,4,4,2,2,2,1,2,2,2,2,2,2,4,4,4,3,2,2,4,5,4,2,2,1,4,2,4,3,3,4,2,2,4,2,2,1,2.92307692307692,4,3,5,2,3,2,3,3,3,2,4,4,2,2,36.9444444444444,36.3333333333333,2,36.6388888888889,1,13.3333333333333,5,1,-.725931829404077,.52610985254702,VCU
1994,2,2,2,2,2,2,2,2,2,3,1,3,1,1,3,1,2.61111111111111,0,3.33333333333333,2.66666666666667,80,1.83333333333333, ,2,1,6,2,1,1,4,2,1,5,4,2,2,5,1,2,3,1,4,1,1,2,3,2,1,2,1,2,2,2,2,2,2,2,1,3,1,2,13:37:50,1.8,2,0,4,4,4,4,5,5,3,2,1,2,4,4,5,4,4,4,1,30,4.16666666666667,2.90909090909091,3,4,3,3,2,2,2,4,3,4,2,3,4,2,3,2,1,4,1,4,1,3,4,5,4,3,3,3,4,2,4,5,5,4,3.76923076923077,2,2,1,1, ,4,4,4,2,2,2,3,3,2,1,2,8,3,8,6,3,1, ,1, , , , , , , , , , ,4,5,5,4,3,4,4,9,2,2,2,1,5,5,3,2,5,3,4,1,2,2,4,4,3,4,3,4,4,2,2,2,4,4,3,4,2,4,4,1,2,4,4,5,5,5,3,1,3,2,4,3,2,1,2,4,2,1,4,2,4,2,4,4,2,2,2.46153846153846,3,2,2,3,2,2,3,2,3,3,2,4,3,2,36.9,36.8,2,36.85,1,15,5,1,-.506338867738129,-1.04760470638749,VCU
1994,2,4,1,5,2,2,3,4,4,2,2,2,3,3,3,2,4,0,4,1.77777777777778,91,4, ,2.81818181818182,1,4,4,4,4,4,4,4,4,4,4,4,4,4,4,4,4,4,4,4,4,4,4,4,4,4,4,4,4,4,4,4,4,4,4,4,4,10:57:04,2.6,2,0,4,4,3,5,5,5,4,3,4,3,4,6,4,5,5,1,1,17,4,2.09090909090909,4,1,4,2,4,1,1,1,1,1,3,1,3,2,1,1,1,3,3,1,2,4,4,5,5,2,4,3,4,5,5,4,5,4,4.15384615384615,2,2,2,1, ,4,4,5, ,3,2,3,3,2,1,2,1,3,1,3,1,2,1,1, , , , , , , , , , ,2,4,5,4,5,4,5,9,1,3,3,4,3,4,3,3,4,4,3,2,3,2,4,4,4,4,4,3,3,3,3,3,3,3,3,1,1,4,4,3,4,3,4,4,4,3,3,2,4,4,2,4,4,2,3,4,3,3,3,2,4,4,3,3,2,4,2.53846153846154,3,3,3,2,2,2,3,3,3,2,3,3,1,3,36.8777777777778,36.9611111111111,2,36.9194444444444,1,14.4444444444444,5,1,.591625940591614,.812239772353295,VCU
1993,2,2,1,2,2,2,2,2,2,2,1,3,3,1,3,2,1.22222222222222,0,4.77777777777778,2.55555555555556,64,1, ,1.81818181818182,1,1,1,1,1,1,2,1,1,1,1,4,1,1,1,1,1,1,1,1,1,1,1,1,1,1,1,1,1,1,1,1,1,1,1,1,1,10:40:50,2.4,2,2,4,5,5,5,5,5,5,3,5,5,5,7,6,5,5,5,5,26,3.83333333333333,2.81818181818182,4,4,4,4,4,1,2,1,2,2,3,2,4,2,3,2,2,3,2,3,1,3,4,3,4,5,1,3,2,4,5,4,4,2,3.38461538461538,2,2,1,1, ,4,4,2,2,4,4,3,3,1, ,2,6,3,1,8,3,1, ,1, , , , , , , , , , ,5,4,4,4,3,3,3,8,2,1,3,2,4,3,3,4,3,5,2,1,4,4,3,3,4,5,5,5,3,4,5,4,2,4,2,2,1,2,3,2,2,3,4,2,4,4,2,2,4,2,4,2,4,4,4,5,4,4,4,2,4,4,5,5,2,4,1.92307692307692,2,2,2,2,2,1,2,2,2,2,1,5,2,3,36.8333333333333,36.5555555555556,2,36.6944444444444,1,10.5555555555556,5,1,-1.60430367606787,-1.76292950590317,VCU
1995,1,2,1,1,1,1,1,1,2,1,1,4,2,2,1,3,1.05555555555556,0,4.77777777777778,2.55555555555556,81,1, ,1.18181818181818,1,1,1,1,1,1,2,1,1,1,1,1,1,1,1,1,1,1,1,1,1,1,1,1,1,1,1,1,1,1,1,1,1,1,1,1,1,10:22:18,2.4,2,0,4,5,5,5,5,5,5,3,5,5,4,4,4,4,2,3,3,15,3.66666666666667,2.81818181818182,4,2,4,3,4,2,2,2,2,2,4,2,4,2,4,2,2,2,2,3,1,5,4,4,5,5,1,3,4,1,4,5,5,5,3.92307692307692,1,2,2,1, ,4,4,4,1,8,5,3,3,1, ,2,8,1, , ,1,1, ,1, , , , , , , , , , ,2,4,4,4,4,4,4,7,2,4,2,5,5,2,3,2,3,3,2,2,2,4,2,3,4,5,3,5,5,4,4,4,1,1,1,4,2,2,2,4,2,3,2,5,3,3,2,2,5,2,4,4,3,2,5,4,3,3,2,2,3,3,2,3,3,3,2.46153846153846,2,2,3,4,1,1,2,3,2,3,3,5,3,3,36.8333333333333,36.28,2,36.5566666666667,1,14.4444444444444,5,1,-1.73605945306744,-1.76292950590317,VCU
1992,2,2,2,2,2,2,2,2,2,2,2,2,2,2,3,2,2.77777777777778,0,3.88888888888889,2.77777777777778,91,1.94444444444444, ,2,1,2,3,2,2,6,3,2,2,2,2,3,2,2,2,2,3,4,6,2,2,2,2,2,2,2,2,2,2,2,2,2,2,2,2,2,1,10:56:37,2.2,1,0,4,4,4,4,4,4,4,4,4,3,3,3,3,3,2,4,3,17,3.83333333333333,2.45454545454545,4,3,3,3,3,1,2,2,2,1,3,2,3,3,4,2,2,3,2,4,1,4,4,4,4,4,2,3,2,2,3,3,4,4,3.30769230769231,1,2,2,1, ,4,4,4,4,2,1,3,2,1, ,2,5,3,1,3,1,1, ,1, , , , , , , , , , ,5,4,3,3,4,4,3,8,2,4,3,3,4,2,3,3,3,4,2,2,3,2,4,4,3,4,3,4,4,3,4,3,2,3,3,3,3,3,3,2,3,4,2,4,5,1,4,3,3,3,4,3,4,3,3,3,4,3,3,3,4,3,4,4,4,3,3.30769230769231,4,3,4,3,3,3,3,4,3,3,3,4,3,4,36.7777777777778,37.0555555555556,4,36.9166666666667,1,14.4444444444444,5,1,-.37458309073856,-.952228066452063,VCU
1997,3,2,3,2,2,3,3,2,3,2,2,2,3,1,2,1,4.66666666666667,0,4,3,60,4.05555555555556, ,2.45454545454545,1,4,4,4,6,4,6,5,6,4,4,4,6,5,5,6,4,5,2,5,4,4,4,4,4,5,3,3,4,4,5,3,4,6,5,2,4,12:59:09,1.8,2,12,4,4,4,4,4,4,4,4,4,4,4,7,7,6,6,6,5,15,6.66666666666667,2.81818181818182,4,4,4,4,4,1,1,2,2,2,3,4,4,2,4,3,2,1,3,4,2,3,4,4,4,3,2,3,2,2,4,4,4,3,3.23076923076923,2,2,2,1, ,4,4,5, ,6,3,6,4,1, ,2,8,1, , ,3,1, ,1, , , , , , , , , , ,7,7,7,7,6,6,6,6,2,3,3,4,3,3,4,4,3,5,4,2,4,4,3,4,4,5,5,4,3,4,4,4,3,2,3,1,4,4,2,4,3,2,2,4,4,4,4,2,4,4,4,2,2,2,4,4,2,4,4,2,4,4,4,3,3,4,3.15384615384615,4,3,4,2,3,2,2,4,2,3,5,5,3,4,36.7222222222222,36.7222222222222,2,36.7222222222222,1,11.1111111111111,5,1,1.11864904858989,.859928092321007,VCU
1995,1,2,1,1,1,1,1,1,1,1,1,1,2,1,3,1,3.27777777777778,0,3.77777777777778,2,61,4.72222222222222, ,1.09090909090909,1,3,5,2,6,5,3,2,2,6,2,2,2,2,1,3,5,2,6,6,5,7,3,5,6,5,5,5,3,3,3,2,5,7,7,6,2,11:28:01,1.6,2,0,4,5,3,4,5,3,4,3,4,3,3,3,4,3,3,1,1,19,4.33333333333333,1.63636363636364,2,2,2,1,2,1,1,2,1,2,2,1,4,1,3,1,1,1,2,4,2,4,3,2,3,4,3,4,3,4,4,5,4,4,3.61538461538462,2,2,2,1, ,4,2,5, ,2,2,6,4,1, ,2,4,3,1,8,1,1, ,1, , , , , , , , , , ,4,5,5,3,5,4,4,7,1,1,2,1,5,5,2,1,5,2,1,1,1,1,5,2,4,1,4,3,3,4,3,3,3,2,3,4,1,2,4,1,1,4,4,4,4,2,2,4,4,2,4,2,1,1,3,5,1,1,2,5,4,2,2,4,2,4,2,2,3,2,2,2,1,2,2,2,2,2,4,2,2,36.7222222222222,36.6111111111111,2,36.6666666666667,1,10.5555555555556,5,1,.0206842402601478,1.43218793193356,VCU
1994,2,4,2,3,3,2,4,2,2,2,2,2,2,2,4,2,2.77777777777778,0,5,4.33333333333333,74,2.11111111111111, ,2.54545454545455,1,3,5,2,3,2,5,2,2,3,2,2,2,4,2,2,2,5,2,2,2,5,2,2,2,2,2,2,2,2,1,2,2,3,2,1,2,11:00:25,2.4,2,0,4,5,5,5,5,5,5,5,5,5,3,3,5,3,3,2,3,21,4.66666666666667,3.81818181818182,4,4,4,4,4,3,3,4,4,4,4,4,5,4,4,4,4,4,5,5,1,3,3,3,2,3,2,2,2,4,4,3,4,3,2.92307692307692,2,2,1,1, ,4,4,4,1,5,3,5,3,1, ,2,3,1, , ,1,1, ,2,Thandavam (dance team),VCU Bhangra (dance team), , , ,3,5, , , ,3,5,5,5,5,5,5,7,1,2,3,3,3,3,2,2,2,4,2,2,2,4,4,4,4,4,3,5,4,3,4,3,1,1,1,3,3,3,3,3,4,4,2,2,2,2,2,2,4,3,4,2,2,2,4,4,4,3,4,3,3,3,4,3,2,3,2.92307692307692,3,3,3,3,3,3,2,3,3,3,3,4,3,3,36.67,36.7777777777778,3,36.7238888888889,1,16.6666666666667,5,1,-.37458309073856,-.809163106548926,VCU
1994,4,3,1,3,2,1,1,4,1,4,2,3,4,2,3,2,4.22222222222222,0,5,4.11111111111111,81,3, ,2.36363636363636,1,5,5,5,5,5,5,7,3,6,4,3,4,3,2,2,5,5,2,3,6,2,3,2,3,2,2,5,2,3,4,4,2,3,2,2,4,22:31:47,2.8,2,1,4,5,5,5,5,5,5,5,5,5,4,3,6,3,4,4,4,22,4.5,2.90909090909091,4,3,4,3,3,2,1,2,3,4,3,4,4,4,4,4,4,4,5,4,2,2,4,3,2,3,2,2,2,3,4,2,2,3,2.61538461538462,2,2,2,1, ,4,2,5, ,7,3,6,3,1, ,2,8,3,1,5,3,2,1,2,Health Science Club, , , , ,3, , , , ,4,5,4,4,5,5,5,8,2,1,2,1,5,5,5,3,5,2,1,2,3,4,4,1,4,5,4,5,5,5,5,5,2,4,2,5,1,2,5,2,5,3,4,5,4,4,2,2,3,3,2,2,2,2,2,4,3,2,3,2,4,1,3,2,4,4,2.38461538461538,2,3,3,3,3,3,2,2,2,2,2,3,2,2,36.6666666666667,36.9444444444444,2,36.8055555555556,1,14.4444444444444,5,1,.767300309924373,-.0461499870655281,VCU
1994,3,4,1,3,1,3,3,2,2,3,2,2,4,2,1,2,3.05555555555556,0,4.22222222222222,2.88888888888889,45,1.44444444444444, ,2.45454545454545,1,1,5,1,2,2,4,2,3,5,1,6,5,1,5,5,4,2,1,4,1,2,1,2,1,1,1,1,1,1,1,1,1,3,2,1,1,11:32:49,2.2,2,6,4,5,5,3,4,5,5,4,3,4,5,7,7,6,6,6,6,35,1.33333333333333,3,4,4,4,4,4,1,1,1,4,2,4,4,3,4,4,1,1,3,2,4,1,3,3,2,1,2,4,3,2,1,5,4,1,1,2.46153846153846,2,2,2,1, ,4,4,4,2,5,3,3,3,2,8,2,8,3,3,8,3,1, ,1, , , , , , , , , , ,3,1,1,1,1,1,1,9,3,3,4,5,5,1,3,5,3,5,2,1,1,5,4,2,5,5,5,5,3,5,4,3,1,1,3,4,4,4,4,4,2,2,5,5,5,2,2,2,4,3,4,2,5,3,3,5,5,5,5,1,3,5,5,3,2,4,2.23076923076923,3,2,4,2,2,1,2,1,3,3,2,5,1,3,36.6666666666667,36.7222222222222,3,36.6944444444444,1,17.7777777777778,5,1,-.154990129072611,-1.38142294616147,VCU
1994,2,3,1,3,3,3,3,3,3,2,3,2,3,1,3,4,4,0,5,1,64,3.88888888888889, ,2.63636363636364,1,4,4,4,4,4,4,4,4,2,4,4,6,4,4,4,4,4,4,4,2,4,4,4,4,4,4,4,4,4,4,4,4,4,4,4,4,10:32:20,2.6,2,0,4,5,5,5,5,5,5,5,5,5,5,3,4,5,5,5,1,27,3.33333333333333,1.81818181818182,4,1,4,3,2,1,1,1,1,1,1,1,1,1,1,1,1,1,1,1,1,5,5,2,5,4,5,3,5,3,5,5,5,4,4.30769230769231,2,2,1,1, ,4,2,4,2,2,2,6,6,2,3,2,6,3,1,8,2,1, ,1, , , , , , , , , , ,3,4,3,6,2,2,2,9,3,3,3,3,3,3,3,3,3,4,4,2,3,3,3,3,3,3,3,3,3,3,3,3,3,3,3,3,4,5,5,4,1,2,3,3,3,2,2,2,4,4,3,3,3,2,4,4,3,3,3,3,3,3,3,3,3,3,2.76923076923077,3,4,5,2,2,2,4,3,2,2,3,5,2,2,36.6111111111111,36.3333333333333,2,36.4722222222222,1,10.5555555555556,5,1,.591625940591614,.71686313241787,VCU
1996,2,2,1,2,2,2,3,2,4,2,2,1,2,4,4,3,4.38888888888889,0,3.55555555555556,3.44444444444444,80,4.55555555555556, ,2.18181818181818,1,4,5,4,7,4,6,4,5,4,3,5,5,4,5,5,4,2,3,5,4,7,4,5,4,2,4,4,5,5,5,3,3,7,7,4,4,10:13:49,2.8,2,5,4,4,3,4,4,3,2,4,4,4,3,4,1,1,2,3,2,52,3.66666666666667,3.63636363636364,5,5,2,5,4,2,3,3,5,2,4,4,4,3,4,4,2,2,4,4,2,5,5,4,4,4,5,3,4,3,5,5,4,3,4.15384615384615,2,2,2,1, ,4,1,5, ,5,1,5,5,1, ,2,8,3,1,8,6,2,8,2,student ambassadors,orientation staff,psych lab, , ,7,7,7, , ,4,5,3,5,2,3,3,8,4,2,2,2,4,4,2,3,4,4,2,1,4,3,4,5,4,5,4,4,3,2,3,3,2,4,3,3,1,3,3,2,5,4,2,5,4,3,2,2,2,4,3,2,5,2,2,4,4,4,3,4,5,2,2,4,2,2,2.30769230769231,2,3,4,2,2,2,2,2,2,2,3,5,2,2,36.6111111111111,36.5555555555556,2,36.5833333333333,1,15,5,1,.899056086923942,1.28912297203042,VCU
1994,2,2,2,2,2,2,2,2,4,2,2,4,3,2,4,2,1.94444444444444,0,4,2.88888888888889,87,2.05555555555556, ,2.18181818181818,1,2,2,2,2,2,2,2,2,2,1,2,2,2,2,2,2,2,2,2,2,2,2,3,2,2,2,2,2,2,2,2,2,2,2,2,2,9:45:50,3,2,0,4,5,4,4,4,3,4,4,4,4,5,6,6,4,5,5,3,25,6,3.09090909090909,4,2,4,4,2,2,2,4,4,4,2,4,4,2,4,2,2,2,2,4,1,3,4,4,4,2,3,3,3,4,5,5,4,3,3.61538461538462,2,2,1,1, ,3,1,2,1,5,4,6,3,1, ,2,4,3,1,8,1,1, ,2,Student Admissions Ambassadors, , , , ,5, , , , ,7,6,6,6,5,6,5,8,1,2,4,2,4,2,2,2,4,4,4,2,2,2,4,4,4,4,4,5,3,4,4,3,2,3,2,3,4,4,2,4,4,4,2,4,4,4,2,2,4,3,4,2,4,2,2,4,4,4,4,2,4,4,4,4,2,2,2.38461538461538,2,3,4,2,2,2,2,2,2,3,3,4,2,2,36.6111111111111,36.6111111111111,2,36.6111111111111,1,13.3333333333333,5,1,-1.03336197573641,-.856851426516639,VCU
 ,2,2,1,2,3,1,2,4,4,1,3,3,2,3,4,4,2.11111111111111,0,5,1.66666666666667,68,4.44444444444444, ,2.27272727272727, ,1,1,1,1,1,4,1,1,4,4,3,3,2,1,3,3,1,3,2,6,1,4,4,1,3,4,7,7,5,5,5,4,7,6,4,5,23:40:05,3.2, , ,4,5,5,5,5,5,5,5,5,5,2,5,4,2,1,1,2,23,3.5,1.45454545454545,2,2,2,2,2,1,1,1,1,1,1,3,3,1,3,1,1,1,1,1, ,4,5,5,3,4,5,4,4,3,5,2,4,4,4, , ,2,1, ,4,4,5, ,5,4,5,5,1, ,2,5,3,1,5,3,1, ,1, , , , , , , , , , ,3,4,4,3,3,4,3,7,3,3,4,4,3,3,4,4,3,5,5,3,3,3,4,4,4,3,3,3,3,4,3,3,3,3,3,1,3,3,3,4,3,3,3,4,4,2,3,2,3,3,3,3,2,3,4,4,2,3,2,4,5,3,3,4,3,1,3.15384615384615,3,3,4,3,2,3,3,3,4,2,4,2,3,4,36.5, , ,36.5,1,8.88888888888889,5,1,-.901606198736836,1.19374633209499,VCU
1996,1,2,1,2,1,1,1,1,1,1,1,2,2,1,1,1,5.22222222222222,0,4,2.55555555555556,94,4.55555555555556, ,1.18181818181818,1,6,6,6,6,6,7,2,6,6,5,6,3,6,3,7,5,7,1,5,6,5,3,5,5,3,5,3,3,5,6,5,3,5,5,5,5,10:54:19,1.4,2,0,4,5,4,4,4,4,5,2,4,4,3,4,4,4,4,5,4,26,5,1,1,1,1,1,1,1,1,1,1,1,1,2,2,2,2,2,1,4,4,4,2,2,1,1,2,3,1,1,2,2,3,2,2,2,1.84615384615385,2,2,2,1, ,4,4,5, ,4,3,5,5,1, ,2,4,3,1,4,1,1, ,2,Sorority, , , , ,10, , , , ,6,5,4,4,6,5,5,7,2,1,4,4,2,2,2,2,4,2,2,1,2,2,4,5,4,3,1,3,4,4,4,2,2,4,3,4,1,4,5,4,5,4,4,5,5,2,4,2,2,2,5,4,1,4,5,4,1,1,4,2,5,4,4,4,2,1,2.61538461538462,2,2,4,2,2,2,3,3,3,4,2,4,3,2,36.5,36.28,2,36.39,1,13.3333333333333,5,1,1.55783497192179,1.28912297203042,VCU
1992,1,1,1,1,1,1,1,1,1,1,1,2,2,1,3,2,1.83333333333333,0,3.44444444444444,3.22222222222222,94,2.61111111111111, ,1,1,1,1,1,1,5,1,1,5,1,1,2,1,1,1,1,7,1,1,2,2,2,2,2,2,4,1,1,5,4,3,2,5,3,2,1,4,10:09:20,2,2,6,4,4,3,3,4,4,3,4,3,3,3,2,3,2,3,2,2,20,3,2,1,4,1,2,1,2,3,1,4,1,2,2,5,2,5,1,1,4,5,4,1,1,2,5,5,3,1,1,1,3,3,4,5,2,2.76923076923077,2,2,2,1, ,4,4,5, ,2,1,8,8,1, ,2,4,3,1,2,2,1, ,2,School club (t1d rams), , , , ,1, , , , ,3,5,4,2,2,2,2,7,2,1,2,3,4,2,3,2,5,5,1,4,3,3,3,4,5,4,3,3,2,5,4,2,1,3,3,1,3,2,2,1,4,3,4,4,4,4,3,2,4,2,4,2,3,2,2,4,3,3,3,1,3,4,3,3,3,4,2.23076923076923,1,3,3,2,1,2,2,2,3,3,2,5,3,2,36.5,36.5,2,36.5,1,13.3333333333333,5,1,-1.12119916040278,-.379968226839515,VCU
1993,4,4,3,4,4,3,4,4,3,4,4,3,3,3,3,3,3.55555555555556,0,3.66666666666667,2.77777777777778,81,3.44444444444444, ,3.72727272727273,1,5,3,5,4,5,2,2,3,5,2,3,4,4,4,4,2,5,2,4,6,3,6,2,5,3,2,6,3,3,2,3,3,4,2,2,3,9:39:36,3,2,4,4,4,4,4,4,4,4,3,3,3,4,3,6,3,2,3,1,23,3.16666666666667,2.63636363636364,4,2,4,4,2,2,3,2,2,2,2,2,3,2,4,2,2,3,4,3,1,2,4,4,3,3,2,1,2,3,3,2,2,3,2.61538461538462,2,2,2,1, ,4,3,3,1,3,2,6,5,1, ,2,3,3,1,8,2,1, ,1, , , , , , , , , , ,2,4,4,3,3,3,3,8,2,2,2,4,4,3,2,3,3,5,4,2,3,3,4,4,3,4,2,4,4,3,4,4,2,2,2,2,4,5,5,3,3,4,1,5,4,4,2,3,4,5,3,2,2,3,3,4,3,4,2,3,4,4,3,2,5,3,3.69230769230769,4,4,5,3,3,4,3,4,4,3,4,4,3,4,36.5,36.1666666666667,2,36.3333333333333,1,14.4444444444444,5,1,.240277201926096,.335356572676171,VCU
1995,3,3,2,1,3,4,3,1,4,2,3,1,5,1,3,1,2.66666666666667,0,4.77777777777778,2.55555555555556,74,1.44444444444444, ,2.63636363636364,1,4,4,1,3,4,5,1,1,4,1,6,2,1,1,1,4,4,1,1,1,1,1,1,1,1,1,1,2,2,1,1,1,3,2,1,4,9:36:45,2.2,2,3,4,5,5,5,5,5,5,3,5,5,5,8,7,8,8,8,7,46,2.5,2.90909090909091,5,2,5,4,5,1,1,1,2,1,5,4,3,3,4,2,1,2,2,2,2,5,4,5,5,5,3,5,3,3,4,5,5,5,4.38461538461539,2,2,2,1, ,4,4,5, ,8,8,3,8,2,8,2,4,3,8,1,1,1, ,2,Praise Dance Ministry, , , , ,7, , , , ,7,1,3,2,1,1,3,8,3,5,5,4,5,4,5,3,5,5,4,1,3,2,5,5,5,4,5,5,5,4,5,5,1,1,3,1,2,5,5,4,3,5,4,5,5,5,1,1,5,3,5,4,4,3,2,5,3,2,5,3,5,5,5,3,1,5,2.53846153846154,3,4,5,2,2,2,2,3,2,1,2,5,1,4,36.5,36.6111111111111,2,36.5555555555556,1,8.88888888888889,5,1,-.462420275404939,-1.38142294616147,VCU
1994,2,4,2,2,2,2,2,2,3,2,2,2,2,2,4,2,2.22222222222222,0,4.55555555555556,2.44444444444444,91,2.94444444444444, ,2.27272727272727,1,2,3,2,2,2,3,3,2,2,1,3,5,1,2,3,2,1,1,3,5,3,2,2,2,3,3,6,3,3,3,2,2,3,3,2,3,10:40:09,2.4,2, ,4,5,4,5,5,5,5,2,5,5,1,2,1,2,2,3,1,25,1,3,4,4,4,4,4,2,2,2,2,2,3,2,4,2,2,2,2,2,2,4,1,4,5,2,2,2,4,3,4,2,5,4,5,2,3.38461538461538,2,2,1,1, ,4,2,5, ,8,4,5,3,1, ,2,8,3,1,6,1,1, ,2,Fraternity, , , , ,7, , , , ,1,1,1,1,1,1,1,7,2,4,4,2,4,4,3,2,4,4,2,1,1,2,4,4,4,4,3,4,4,4,2,2,2,2,2,2,4,4,4,2,4,4,4,4,4,4,2,2,4,2,4,2,2,2,4,4,4,3,3,2,3,4,3,4,4,3,2.30769230769231,2,3,3,2,2,2,2,2,2,2,3,4,2,3,36.4444444444444,36.5555555555556,2,36.5,1,14.4444444444444,5,1,-.813769014070457,-.0938383070332403,VCU
1994,2,4,2,2,2,3,3,2,2,2,2,2,2,1,2,1,2.72222222222222,0,3.88888888888889,3.88888888888889,87,1.72222222222222, ,2.36363636363636,1,3,2,2,5,4,3,4,2,2,2,5,2,2,2,1,2,5,1,2,1,3,1,1,1,2,2,2,2,2,1,1,2,2,3,1,2,10:09:42,1.6,2,2,4,5,4,4,4,4,3,3,4,4,5,4,2,2,2,2,3,12,5.5,3.81818181818182,4,4,4,4,4,3,4,4,4,3,4,4,4,4,4,3,4,4,4,4,1,4,4,3,4,4,3,3,3,3,4,4,4,4,3.61538461538462,2,2,2,1, ,4,4,5, ,8,1,5,5,1, ,2,4,1, , ,1,1, ,1, , , , , , , , , , ,5,6,6,6,5,5,6,6,2,4,4,5,4,2,2,2,2,5,3,4,2,4,5,4,4,5,5,5,3,3,5,4,1,2,3,2,5,3,2,4,3,4,3,5,5,3,3,2,4,4,4,4,5,2,4,4,5,5,5,2,4,5,4,2,1,2,2.30769230769231,4,3,3,2,2,2,2,2,2,2,2,4,2,2,36.4444444444444,36.3333333333333,2,36.3888888888889,1,13.3333333333333,5,1,-.418501683071749,-1.14298134632291,VCU
1995,1,4,1,4,1,2,3,2,3,1,2,4,4,2,3,2,3.22222222222222,0,4,3.77777777777778,81,1.72222222222222, ,2.18181818181818,1,3,3,3,5,4,5,1,7,5,1,2,3,2,5,2,1,5,1,1,1,1,2,2,1,1,2,7,1,1,1,1,3,2,2,1,1,10:05:38,3,2,12,4,5,4,4,4,4,4,4,4,3,2,5,3,2,1,2,5,17,5.16666666666667,4.09090909090909,4,4,4,5,4,3,5,5,2,5,4,5,5,3,5,4,2,2,3,5,1,4,2,1,2,2,2,2,2,2,3,4,4,3,2.53846153846154,2,2,2,1, ,4,4,5, ,2,2,5,5,1, ,2,8,3,1,3,1,1, ,1, , , , , , , , , , ,5,5,5,5,6,5,2,7,3,1,4,3,4,4,4,4,4,4,2,4,1,4,4,5,4,5,3,5,2,4,4,4,1,3,1,4,2,4,4,1,3,3,4,5,4,4,1,2,4,3,2,4,3,4,4,4,4,4,3,2,4,4,3,3,1,4,2.92307692307692,3,3,4,2,3,3,3,3,3,3,3,5,2,3,36.4444444444444,36.4444444444444,3,36.4444444444444,1,14.4444444444444,5,1,-.0232343520730418,-1.14298134632291,VCU
1995,2,2,2,2,2,2,2,2,2,2,2,2,2,2,4,2,2.33333333333333,0,3.77777777777778,3.44444444444444,68,2.44444444444444, ,2,1,2,2,2,2,2,2,2,2,2,4,6,2,2,2,2,2,2,2,2,2,2,2,2,2,2,2,6,6,2,2,2,2,2,2,2,2,10:02:39,2.4,2,30,4,4,4,4,4,4,4,2,4,4,4,4,4,2,4,2,2,47,4,3.27272727272727,5,5,4,4,3,2,1,1,4,2,5,4,5,2,4,2,2,4,4,4,2,4,4,5,3,4,4,4,3,4,4,4,4,4,3.92307692307692,2,2,2,1, ,4,4,5, ,8,3,8,8,2,8,2,8,3,1,8,1,2,6,2,Sorority, , , , ,55, , , , ,4,4,4,4,4,4,4,9,5,2,2,2,4,4,2,2,4,4,2,2,2,2,4,4,4,4,3,4,4,4,4,2,2,2,4,2,2,4,4,4,5,2,2,4,4,4,2,2,4,4,4,2,2,2,2,4,2,4,4,2,4,4,4,4,2,4,2.46153846153846,3,3,3,2,2,2,2,3,2,2,3,5,3,2,36.4444444444444,36.6111111111111,2,36.5277777777778,1,10.5555555555556,5,1,-.725931829404077,-.523033186742652,VCU
1993,1,1,2,1,1,2,1,1,1,1,1,1,1,1,3,1,1.38888888888889,0,4.88888888888889,3,94,2, ,1.18181818181818,1,1,1,1,1,1,2,1,1,1,1,7,1,1,1,1,1,1,1,1,1,6,1,1,1,1,1,1,2,2,2,1,1,6,6,1,1,9:46:25,1.4,2, ,4,5,5,5,5,5,5,4,5,5,3,3,7,3,4,4,3,28,5.5,2.63636363636364,4,4,1,4,4,2,2,2,1,1,4,2,4,1,5,1,1,4,4,5,1,3,5,5,5,4,4,4,5,5,5,5,5,4,4.53846153846154,2,2,1,1, ,4,4,4,2,5,3,6,5,2,5,2,3,3,1,6,1,1, ,1, , , , , , , , , , ,6,4,5,6,6,6,5,9,3,2,2,4,4,2,5,4,4,5,5,1,4,4,3,1,5,5,5,2,4,5,2,1,1,4,1,1,4,5,3,5,5,1,4,4,5,5,1,1,5,4,4,4,4,5,1,4,4,3,3,2,4,4,5,2,1,5,1.69230769230769,2,2,2,2,1,1,1,2,2,2,2,4,2,1,36.4444444444444,36.4444444444444,2,36.4444444444444,1,13.3333333333333,5,1,-1.4725478990683,-.904539746484351,VCU
1996,2,2,2,2,2,2,2,2,2,2,2,2,2,2,2,2,1.94444444444444,0,4.33333333333333,2.33333333333333,85,2.66666666666667, ,2,1,2,2,2,2,2,2,1,2,2,2,2,2,2,2,2,2,2,2,2,2,6,2,2,2,2,2,2,2,2,2,2,2,6,6,2,2,9:30:02,2,2,2,4,5,5,5,5,5,5,3,3,3,4,7,6,5,5,5,5,23,5,2.18181818181818,4,2,2,2,2,2,2,2,2,2,2,1,4,1,4,1,1,1,4,4,2,2,4,5,4,4,4,3,4,5,5,5,5,4,4.15384615384615,2,2,2,1, ,4,4,5, ,5,5,2,2,2,1,2,4,3,1,6,2,2,1,1, , , , , , , , , , ,7,5,4,4,5,5,5,9,1,2,4,4,4,2,4,2,2,4,4,2,2,2,4,4,4,4,2,2,2,2,2,2,2,2,2,2,4,2,2,4,2,4,2,4,4,4,2,2,4,4,2,4,4,4,4,4,4,4,2,2,4,4,2,2,2,4,2.23076923076923,2,3,4,1,1,2,2,3,1,3,3,5,2,2,36.4444444444444,36.3888888888889,2,36.4166666666667,1,15,5,1,-1.03336197573641,-.332279906871803,VCU
1995,4,4,1,4,4,1,4,4,4,1,1,1,1,2,2,4,3.27777777777778,0,4.11111111111111,2.66666666666667,81,2.11111111111111, ,2.90909090909091,1,2,2,1,2,6,6,2,5,6,3,2,2,2,1,1,6,5,5,2,1,6,1,2,2,2,1,2,1,1,2,1,1,4,3,3,3,11:00:28,2,2,0,4,5,5,5,5,5,1,5,5,1,5,6,5,2,3,4,1,25,5.16666666666667,2.81818181818182,2,5,4,4,4,1,4,1,4,1,1,4,4,3,4,1,1,1,4,2,1,4,3,4,3,2,1,4,3,3,4,4,2,3,3.07692307692308,2,2,1,1, ,4,4,4,2,6,2,8,5,2,1,2,8,3,1,8,1,1, ,1, , , , , , , , , , ,7,4,5,6,4,5,4,9,3,2,2,4,5,1,2,5,2,2,1,1,2,4,4,4,2,4,2,4,2,4,3,3,1,4,4,4,5,4,4,5,4,2,1,2,4,2,2,1,2,5,2,1,1,4,2,5,4,3,4,4,5,1,2,2,5,2,1.76923076923077,2,2,3,1,1,1,2,2,2,2,1,3,2,2,36.3888888888889,37,2,36.6944444444444,1,14.4444444444444,5,1,.0206842402601478,-.809163106548926,VCU
1996,2,4,4,4,2,3,5,4,4,4,4,2,4,2,2,2,2.44444444444444,4,3.88888888888889,3,91,1.83333333333333, ,3.63636363636364,1,2,2,2,3,2,2,3,3,2,2,2,2,5,2,3,2,3,2,2,1,2,1,2,1,2,1,2,2,2,2,2,5,2,1,1,2,10:34:00,2.4,2,0,4,4,4,4,4,4,4,3,4,4,3,3,4,2,2,3,2,23,3.66666666666667,2.81818181818182,4,4,4,3,3,2,3,2,2,2,2,3,3,2,4,2,2,2,4,5,1,3,2,3,3,2,2,2,2,2,4,2,2,2,2.38461538461538,2,2,2,1, ,4,2,4,2,6,1,5,5,1, ,2,2,3,1,3,1,1, ,2,Sorority, , , , ,10, , , , ,4,5,3,4,3,3,4,8,2,3,5,4,4,4,4,2,2,5,2,2,2,2,5,4,4,4,4,4,4,4,2,2,2,2,3,2,3,4,4,3,2,4,2,4,4,1,2,2,4,2,4,3,2,2,2,3,2,4,4,4,3,2,2,3,1,2,3.53846153846154,4,4,4,4,3,2,3,4,3,4,5,4,3,3,36.3888888888889,36.4444444444444,2,36.4166666666667,1,14.4444444444444,5,1,-.638094644737698,-1.04760470638749,VCU
1995,2,2,2,2,2,2,2,2,2,2,2,2,4,1,3,2,1.72222222222222,0,4,3.55555555555556,81,2.33333333333333, ,2,1,2,2,2,2,1,4,1,1,2,1,2,2,2,2,1,2,1,1,1,1,6,2,2,1,1,2,2,1,2,2,1,2,6,6,2,2,10:27:38,2.4,2,8,4,4,4,4,4,4,4,4,4,4,4,5,6,5,5,5,5,28,2.5,2.72727272727273,4,4,4,4,2,2,2,2,2,2,2,3,5,4,4,3,2,5,2,4,1,4,5,5,5,5,5,5,5,5,5,5,5,5,4.92307692307692,2,2,2,1, ,4,4,4,1,5,5,6,6,2,8,2,4,1, , ,2,2,1,2, , , , , , , , , , ,3,2,4,2,2,2,3,9,3,2,4,2,4,4,2,4,2,4,2,2,2,2,5,5,3,5,4,4,4,4,4,4,2,2,2,2,4,4,2,4,4,3,2,4,4,2,2,2,4,3,3,4,2,2,4,4,2,2,2,4,4,2,3,3,4,4,1.92307692307692,1,3,3,1,1,2,1,3,2,2,3,5,2,1,36.3888888888889,36.9444444444444,2,36.6666666666667,1,14.4444444444444,5,1,-1.20903634506916,-.618409826678077,VCU
1994,2,4,2,4,3,2,3,2,2,2,2,2,2,2,2,2,2.61111111111111,0,3.44444444444444,2.55555555555556,97,3, ,2.54545454545455,1,2,4,2,2,2,4,2,3,6,2,3,2,2,2,1,3,2,3,4,3,4,3,3,3,2,2,6,2,1,1,3,4,3,4,3,3,21:38:06,2,2,6,4,4,4,4,4,4,3,2,2,4,4,4,4,1,1,1,3,18,5,2.27272727272727,4,3,3,2,2,3,1,1,2,2,2,4,4,2,4,3,1,1,3,1,2,3,4,4,2,3,4,3,3,4,2,3,4,2,3.15384615384615,2,2,2,1, ,4,4,5, ,3,1,3,3,1, ,2,5,1, , ,2,1, ,2,internship, , , , ,12, , , , ,6,6,5,4,5,4,4,6,2,5,1,4,4,1,4,5,1,4,2,2,3,2,4,4,4,5,3,4,3,3,4,4,3,2,2,3,2,4,4,3,2,2,1,4,4,2,2,2,2,3,2,2,2,4,3,4,4,2,2,2,2,4,3,3,2,2,2.84615384615385,3,2,4,3,2,3,3,2,2,4,3,5,2,4,36.3333333333333,36.1666666666667,2,36.25,1,11.1111111111111,5,1,-.506338867738129,-.0461499870655281,VCU
1994,2,3,2,3,2,2,2,4,2,2,2,4,2,2,2,2,2,0,5,2,88,2.61111111111111, ,2.36363636363636,1,2,2,2,2,2,2,2,2,2,2,2,2,2,2,2,2,2,2,2,2,6,2,2,2,2,2,2,6,2,2,2,2,2,4,2,3,10:42:23,2.4,2,10,4,5,5,5,5,5,5,5,5,5,4,6,6,6,6,6,6,29,5,2,2,2,2,2,2,2,2,2,2,2,2,2,2,2,2,2,2,2,2,2,1,4,4,2,4,4,4,4,4,2,5,4,4,3,3.69230769230769,2,2,2,1, ,4,4,5, ,6,4,8,6,1, ,2,8,3,1,8,5,1, ,1, , , , , , , , , , ,5,5,5,5,5,5,5,7,4,2,4,4,4,4,2,4,4,5,4,2,4,4,4,3,3,3,4,4,4,4,4,4,2,2,2,1,3,4,4,2,4,3,2,4,4,4,3,3,4,3,3,3,2,2,3,4,3,2,2,2,4,3,3,4,2,3,2.15384615384615,2,3,3,2,2,2,2,2,2,2,2,4,2,2,36.3333333333333,36.6111111111111,2,36.4722222222222,1,10,5,1,-.989443383403216,-.379968226839515,VCU
1985,1,1,1,1,1,1,1,1,1,1,1,2,3,2,1,1,1,0,3.88888888888889,2.22222222222222,53,1.38888888888889, ,1,1,1,1,1,1,1,1,1,1,1,1,1,1,1,1,1,1,1,1,1,1,1,1,1,1,7,1,1,1,2,1,1,1,1,1,1,1,10:09:38,1.8,2,4,4,5,4,4,4,4,4,4,3,3,4,5,3,2,2,2,2,24,2.66666666666667,1.18181818181818,2,1,1,2,1,1,1,1,1,1,1,1,5,1,4,2,1,1,1,4,1,4,4,2,3,2,2,3,3,1,4,5,5,4,3.23076923076923,2,2,1,1, ,4,4,4,4,4,2,6,2,1, ,2,1,3,5,5,1,1, ,1, , , , , , , , , , ,2,3,3,3,3,2,2,8,1,2,2,4,4,4,3,2,3,2,3,2,3,2,4,4,3,3,3,3,3,4,4,4,1,1,1,4,2,3,3,2,3,4,2,3,2,3,2,2,3,2,4,2,4,1,5,4,4,3,3,3,4,2,2,3,3,2,2.38461538461538,2,2,4,2,2,2,2,2,2,3,2,4,3,3,36.3333333333333,36.4444444444444,2,36.3888888888889,1,8.88888888888889,5,1,-1.77997804540063,-1.42911126612919,VCU
1994,2,3,2,4,2,2,2,2,5,2,2,3,2,4,4,4,2.05555555555556,0,5,1.11111111111111,71,4.27777777777778, ,2.54545454545455,1,2,2,1,2,2,3,2,2,3,2,2,2,1,2,2,2,1,4,2,5,5,4,2,4,3,5,6,6,5,4,4,2,5,5,5,5,9:57:24,3.4,2, ,4,5,5,5,5,5,5,5,5,5,2,4,2,3,3,1,1,20,3,1.90909090909091,3,1,3,3,3,1,1,1,1,1,3,1,1,1,2,1,1,1,1,1,1,4,5,5,5,5,4,5,4,4,1,4,5,1,4,2,2,2,1, ,4,4,5, ,3,3,4,3,1, ,2,6,3,1,5,3,1, ,1, , , , , , , , , , ,3,3,4,3,2,3,3,7,2,3,3,4,4,3,4,4,2,4,3,3,2,3,4,4,4,2,2,3,3,3,3,3,2,2,2,2,3,3,3,4,2,3,2,3,4,3,3,2,3,4,4,3,3,3,4,4,2,1,3,2,5,3,3,3,3,1,3.15384615384615,2,2,4,3,3,3,4,4,4,3,3,5,3,3,36.33,35.5555555555556,2,35.9427777777778,1,10.5555555555556,5,1,-.945524791070026,1.05068137219186,VCU
1995,3,3,3,2,3,4,3,3,3,4,3,2,3,2,3,2,2.11111111111111,0,4,3.33333333333333,94,2.11111111111111, ,3.09090909090909,1,2,2,2,2,2,2,2,2,2,2,2,2,2,4,2,2,2,2,2,1,2,2,2,2,2,2,6,2,2,2,2,2,2,2,1,2,9:40:25,2.4,2,2,4,4,4,4,4,4,4,4,4,4,5,5,6,5,5,6,5,21,5,3.18181818181818,4,4,4,4,4,2,2,2,3,2,4,3,3,3,3,4,3,3,4,4,1,4,4,2,4,3,4,3,2,4,4,5,5,3,3.61538461538462,2,2,1,1, ,4,4,4,4,6,5,6,6,1, ,2,6,1, , ,1,1, ,1, , , , , , , , , , ,4,6,5,5,5,5,5,7,3,2,4,2,4,4,4,4,4,4,2,3,3,3,4,4,4,4,4,4,4,4,4,4,2,2,2,4,2,4,4,3,3,4,4,2,3,3,2,2,2,2,2,4,4,2,4,4,4,4,4,2,4,3,4,4,2,2,2.30769230769231,3,3,3,2,1,2,2,3,2,2,2,4,2,3,36.28,36.3333333333333,2,36.3066666666667,1,13.3333333333333,5,1,-.901606198736836,-.809163106548926,VCU
1994,2,2,1,2,2,2,2,2,2,2,2,2,2,2,4,2,2.5,0,3.66666666666667,2.44444444444444,81,2.83333333333333, ,1.90909090909091,1,2,2,2,2,2,5,2,2,3,2,6,2,2,2,2,2,2,3,2,3,2,3,2,2,2,3,3,3,3,3,3,2,3,3,3,6,10:32:33,2.4,2,4,4,4,4,4,4,4,4,2,3,4,3,4,2,2,2,2,3,17,5.16666666666667,2.72727272727273,4,4,2,4,2,2,2,2,2,4,2,2,4,2,4,2,2,2,2,2,2,4,4,4,4,3,3,2,2,3,3,4,5,3,3.38461538461538,2,2,2,1, ,4,4,5, ,3,1,3,3,1, ,2,4,1, , ,1,1, ,2,Discrimination Lab, , , , ,10, , , , ,7,5,5,4,5,5,5,6,1,3,3,4,4,2,2,4,4,2,2,2,2,2,4,3,4,4,2,4,2,2,2,4,2,2,2,2,3,4,4,4,2,2,2,4,4,3,4,2,4,4,4,4,4,4,3,4,4,2,2,2,4,2,2,2,2,2,2.46153846153846,3,2,5,2,3,2,2,3,2,2,2,4,2,2,36.2222222222222,36.1111111111111,2,36.1666666666667,1,14.4444444444444,5,1,-.594176052404508,-.189214946968665,VCU
1994,2,4,2,4,2,2,4,4,2,2,1,2,2,2,4,5,3.66666666666667,0,2.77777777777778,3.44444444444444,61,3.5, ,2.63636363636364,1,4,4,2,3,5,5,3,5,3,2,5,4,3,5,4,2,5,2,5,5,5,3,3,3,3,3,3,5,3,4,3,3,3,3,3,3,10:09:01,3,2,0,4,3,2,4,4,4,2,2,2,2,3,3,3,3,3,3,1,18,2.16666666666667,3.09090909090909,4,2,4,4,2,4,2,2,2,4,4,5,4,1,4,3,2,4,4,4,2,2,2,4,4,4,4,4,2,2,4,2,4,3,3.15384615384615,1,2,2,1, ,4,4,5, ,3,2,2,3,2,1,2,8,3,1,5,1,1, ,1, , , , , , , , , , ,3,2,2,2,2,2,2,8,2,2,4,4,4,4,1,2,2,4,4,1,2,3,4,2,4,4,4,4,2,4,3,2,2,4,4,4,1,4,4,2,2,4,2,4,4,2,3,2,2,2,2,2,2,4,4,4,4,4,1,2,4,4,1,4,2,4,2.92307692307692,3,4,4,2,3,2,3,3,2,2,3,4,4,3,36.2222222222222,36.3333333333333,2,36.2777777777778,1,2.77777777777778,5,1,.328114386592476,.383044892643883,VCU
1994,2,4,2,4,2,4,2,2,3,2,2,2,2,2,3,4,2.55555555555556,0,3.77777777777778,2.77777777777778,64,2.94444444444444, ,2.63636363636364,1,2,5,2,2,1,5,5,5,5,1,5,2,1,1,1,1,1,1,4,5,3,5,2,2,2,2,4,3,2,3,3,2,3,3,3,2,9:33:44,2.6,2,4,4,5,4,5,5,3,4,2,3,3,4,3,1,1,1,2,1,33,5.33333333333333,2.63636363636364,4,4,4,5,2,1,1,1,1,2,4,2,4,2,5,2,2,2,4,2,1,3,3,5,4,3,2,3,4,3,5,5,5,4,3.76923076923077,2,2,2,1, ,4,4,5, ,3,1,8,8,1, ,2,2,3,1,8,1,2,2,2,Sorority, , , , ,14, , , , ,5,6,6,6,5,4,5,8,2,1,1,1,5,5,2,2,1,3,1,3,2,4,5,4,4,5,5,5,2,4,3,2,1,2,1,5,1,2,5,1,5,4,4,5,4,4,1,1,4,4,4,2,4,1,2,4,4,3,4,2,5,5,3,4,1,4,2.46153846153846,3,2,4,1,2,2,2,3,3,3,3,5,1,3,36.2222222222222,36.4444444444444,2,36.3333333333333,1,10.5555555555556,5,1,-.550257460071319,-.0938383070332403,VCU
1995,3,3,3,3,3,3,3,3,3,3,3,3,3,3,3,3,3.94444444444444,0,2.88888888888889,2.55555555555556,82,4.16666666666667, ,3,1,4,3,4,3,3,5,5,3,4,4,4,5,5,3,4,5,4,3,4,5,4,4,3,5,4,5,4,5,4,6,5,3,4,3,4,3,16:47:14,3,2,0,4,3,3,4,4,3,3,2,2,2,2,2,4,1,2,2,2,26,3.16666666666667,3,3,3,3,3,3,3,3,3,3,3,3,3,2,3,3,2,3,2,2,3,2,4,4,4,4,2,4,2,5,5,2,3,4,2,3.46153846153846,2,2,2,1, ,4,4,5, ,6,6,6,5,1, ,2,2,3,1,4,5,1, ,1, , , , , , , , , , ,4,3,3,3,3,3,4,7,3,3,3,3,3,3,3,3,3,3,3,3,3,3,3,3,3,3,3,3,3,3,3,3,3,3,3,3,3,3,3,3,3,3,3,3,3,3,3,3,3,3,3,3,3,3,3,3,3,3,3,3,3,3,3,3,3,3,3,2,3,3,3,4,4,3,2,4,3,2,2,3,3,36.1666666666667,36.4444444444444,2,36.3055555555556,1,11.1111111111111,5,1,.547707348258425,.955304732256432,VCU
1995,4,2,1,4,1,1,2,1,4,2,1,3,4,4,3,4,3.38888888888889,0,4.44444444444444,2.22222222222222,97,4.22222222222222, ,2.09090909090909,1,4,3,4,4,4,4,4,2,4,2,4,4,2,4,2,2,4,4,4,4,4,4,4,4,4,4,4,4,4,5,6,5,4,4,4,4,9:42:35,3.6,2,0,4,5,5,5,5,5,5,4,3,3,3,4,2,1,1,4,2,29,2.5,2,2,2,2,2,2,2,2,2,2,2,2,2,2,2,3,2,2,2,1,4,2,5,5,4,4,3,4,2,3,5,4,3,5,2,3.76923076923077,2,2,2,1, ,4,4,5, ,5,5,7,7,1, ,2,3,3,1,6,5,1, ,1, , , , , , , , , , ,4,2,2,2,3,2,3,7,3,2,4,2,5,2,5,4,3,2,2,2,2,2,4,3,4,2,1,3,4,4,3,3,2,2,2,5,4,2,2,4,2,2,2,5,4,5,3,2,4,4,3,3,1,4,4,4,1,1,3,3,5,3,3,3,3,1,2.07692307692308,2,2,3,2,3,2,2,2,1,2,3,5,1,2,36.1666666666667,36.4444444444444,2,36.3055555555556,1,11.1111111111111,5,1,.108521424926527,1.00299305222414,VCU
1991,2,2,1,3,2,2,2,3,4,2,4,3,4,2,3,2,4.05555555555556,0,3.66666666666667,3.22222222222222,81,3.27777777777778,2,2.45454545454545,1,4,4,4,4,4,5,5,4,4,4,2,4,4,5,3,4,5,4,3,3,3,2,3,3,3,4,3,4,3,4,4,3,3,3,4,4,9:58:39,2.8,2,4,4,5,4,5,5,4,3,1,3,3,3,3,4,4,4,4,2,49,4.5,3.27272727272727,4,4,4,4,3,2,3,2,4,2,4,4,4,3,4,4,3,2,1,4,2,2,3,2,2,2,1,3,2,2,3,2,3,3,2.30769230769231,1,1,2,1, ,4,4,5, ,3,3,5,5,2,8,2,8,3,1,8,1,2,4,2,work,church, , , ,7,7, , , ,5,5,4,5,4,4,4,9,4,3,3,4,4,4,4,2,4,5,4,2,2,4,4,4,4,4,3,3,3,3,3,4,3,4,3,2,4,4,4,3,2,4,1,3,4,2,4,2,3,3,2,3,2,2,4,2,2,2,3,3,4,3,2,2,2,2,2.46153846153846,2,3,3,2,2,2,2,2,2,3,4,4,3,2,36.0555555555556,36.0555555555556,2,36.0555555555556,1,14.4444444444444,5,1,.635544532924804,.192291612773034,VCU
1994,2,1,1,1,1,2,2,2,1,2,1,1,1,2,2,1,3.44444444444444,0,4.11111111111111,2.88888888888889,92,1.55555555555556, ,1.45454545454545,1,3,2,4,7,5,3,1,5,3,2,4,5,3,5,2,5,2,1,2,1,2,2,3,1,2,2,1,1,1,1,1,1,2,2,1,2,9:44:49,1.4,2,10,4,4,4,4,4,4,4,3,5,5,5,7,6,4,6,6,3,37,6.5,3.45454545454545,3,4,4,4,3,2,4,4,3,4,3,4,4,3,4,1,2,2,1,5,1,2,2,4,3,4,2,3,2,3,3,4,4,3,3,2,2,1,1, ,4,4,4,1,8,1,2,2,1, ,2,8,3,8,8,1,2,4,2,CHS Student Leadership Council, , , , ,7, , , , ,7,7,6,6,7,6,6,9,2,2,5,4,4,4,3,2,2,5,4,1,2,3,3,4,4,4,3,4,4,3,4,3,2,2,2,1,4,4,2,2,4,2,2,4,4,4,1,1,3,3,4,2,1,2,3,4,3,2,2,1,4,2,3,2,1,4,2.46153846153846,4,3,3,2,2,2,3,2,2,2,3,5,2,2,36.0555555555556,36,2,36.0277777777778,1,12.2222222222222,5,1,.152440017259717,-1.28604630622605,VCU
1966,1,1,1,1,1,1,1,1,1,1,1,5,5,1,1,2,6,0,5,1.77777777777778,92,6.05555555555556, ,1,1,7,7,7,7,7,7,7,7,7,6,2,7,7,1,1,7,7,7,7,7,7,5,7,7,7,7,4,1,7,7,1,7,7,7,7,7,11:28:30,2.8,2,0,4,5,5,5,5,5,5,5,5,5,2,2,4,2,1,2,1,21,1,1,1,1,1,1,1,1,1,1,1,1,1,2,1,2,1,2,1,2,4,1,2,2,5,5,2,5,1,1,5,5,1,1,5,3,3.15384615384615,2,2,3,3,3,2,2,1, ,6,6,3,2,2,1,2,2,3,1,1,2,2,2,1, , , , , , , , , , ,1,1,1,1,1,1,1,10,1,2,4,4,4,4,2,4,4,5,2,2,5,2,2,2,5,3,4,4,2,4,4,2,1,5,4,2,4,5,2,4,3,5,2,2,5,2,2,1,5,2,2,3,2,4,4,4,3,5,5,2,2,5,3,3,2,3,2.23076923076923,2,3,5,1,1,1,4,3,1,2,3,5,1,2,35.9444444444444,36.7777777777778,2,36.3611111111111,1,10,5,1,2.17269526458644,2.57670761115865,VCU
1990,3,4,2,3,4,3,4,3,4,2,3,2,3,1,2,2,3.77777777777778,0,3.44444444444444,3,34,4.27777777777778,3,3.18181818181818,1,4,4,3,5,2,4,3,4,3,6,5,2,4,3,3,3,5,5,3,4,5,5,4,5,6,4,4,4,4,3,4,4,4,5,4,5,11:20:25,2,2,18,4,4,3,3,4,3,4,4,3,3,4,5,5,5,5,5,5,20,5.33333333333333,3.18181818181818,4,3,3,4,3,2,2,3,3,4,4,3,3,2,2,3,3,4,3,4,2,2,3,2,3,2,1,3,2,2,4,3,2,3,2.46153846153846,1,1,2,1, ,4,4,5, ,2,2,4,4,1, ,2,4,3,5,3,1,1, ,1, , , , , , , , , , ,5,5,6,6,5,5,5,7,1,3,3,3,4,4,3,2,3,4,3,2,3,4,4,3,4,4,4,3,2,4,3,2,5,4,4,3,3,4,2,3,3,4,3,3,3,4,4,3,3,2,4,2,3,2,3,4,4,4,4,2,3,3,3,3,4,3,3.53846153846154,4,4,4,3,3,3,3,3,3,4,4,3,4,4,35.9444444444444,36.2222222222222,2,36.0833333333333,1,8.88888888888889,5,1,.415951571258855,1.05068137219186,VCU
 , , , , , , , , , , , , , , , , , , , ,2.88888888888889,92, , , , , , , , , , , , , , , , , , , , , , , , , , , , , , , , , , , , , , , , ,11:05:02, , , ,4, , , , , , , , , , , , , , , , ,0,3.66666666666667,2.18181818181818,2,3,3,4,2,2,2,1,2,1,2,2,4,2,4,2,3,3,2,4, , , , , , , , , , , , , , , , , , , , , , , , , , , , , , , , , , , , , , , , , , , , , , , , , ,7,4,3,4,2,2,2,0,0, , , , , , , , , , , , , , , , , , , , , , , , , , , , , , , , , , , , , , , , , , , , , , , , , , , , , , , , , ,2,2,2,4,1,1,1,2,2,1,2,2,5,3,3,35.9444444444444, , ,35.9444444444444,1,10,5,1, , ,VCU
1992,1,1,2,1,1,1,1,2,1,1,1,2,2,1,2,1,3.11111111111111,0,3.55555555555556,2.88888888888889,57,1, ,1.18181818181818,1,5,2,1,5,1,5,3,6,5,1,5,1,2,6,5,1,1,1,1,1,1,1,1,1,1,1,1,1,1,1,1,1,1,1,1,1,10:14:02,1.6,2,7,4,4,2,5,5,3,4,3,3,3,5,5,6,5,3,4,5,30,4.66666666666667,2.63636363636364,4,4,4,4,3,1,1,2,2,2,2,2,4,2,4,3,2,4,3,2,1,4,4,4,4,3,4,3,3,3,5,4,3,2,3.53846153846154,1,2,4,1, ,4,4,5, ,3,1,7,7,1, ,2,5,3,8,8,1,1, ,1, , , , , , , , , , ,5,5,5,4,5,4,4,7,3,4,5,5,3,2,5,3,2,5,5,3,3,4,4,5,3,5,4,5,2,3,5,3,1,5,1,1,4,5,2,4,3,3,1,4,4,4,2,2,4,4,3,3,3,4,4,4,4,5,3,3,3,4,4,3,4,3,2.23076923076923,3,2,3,2,2,1,2,2,3,2,2,4,2,3,35.8888888888889,35.7222222222222,2,35.8055555555556,1,17.2222222222222,5,1,-.111071536739421,-1.76292950590317,VCU
1994,3,3,1,4,3,3,4,3,2,1,3,3,2,2,4,2,3.22222222222222,0,5,3.44444444444444,92,3.05555555555556, ,2.72727272727273,1,4,4,1,4,5,6,1,1,2,5,6,2,1,4,4,2,1,5,2,2,4,3,5,5,2,2,4,2,1,5,2,4,4,3,2,3,9:29:13,2.6,2,4,4,5,5,5,5,5,5,5,5,5,4,4,5,4,4,2,2,18,4.33333333333333,3.72727272727273,5,3,4,4,3,4,3,3,4,4,4,3,4,3,3,2,3,5,4,4,1,2,1,5,3,4,1,3,3,1,3,4,3,3,2.76923076923077,2,2,2,1, ,4,2,5, ,4,4,3,3,2,2,2,3,3,1,2,1,1, ,2,Sikh Students Association, , , , ,2, , , , ,5,4,3,4,5,5,4,8,1,2,2,4,4,4,2,1,2,5,4,2,4,3,3,2,4,4,3,4,4,4,3,3,2,1,3,2,3,4,3,3,3,3,4,4,3,3,2,2,2,3,4,4,2,3,4,4,5,5,3,4,3,4,4,4,1,2,3.38461538461538,4,4,3,2,3,3,4,4,4,3,3,3,4,3,35.8333333333333,35.8333333333333,2,35.8333333333333,1,10,5,1,-.0232343520730418,.00153833290218414,VCU
1994,4,4,2,4,3,2,3,4,5,2,2,2,4,3,3,2,4.05555555555556,0,3.77777777777778,3.33333333333333,91,3.44444444444444, ,3.18181818181818,1,5,4,3,5,6,6,5,4,4,2,5,3,2,3,2,6,5,3,5,3,5,3,5,3,4,3,3,3,3,3,3,2,3,3,3,5,10:18:32,2.8,2,1,4,4,4,4,4,4,4,3,3,4,2,2,6,2,3,3,2,19,5.5,3.09090909090909,4,4,4,4,4,2,2,2,2,2,4,4,4,4,4,3,3,2,2,4,2,2,4,4,2,3,4,4,1,3,4,3,4,3,3.15384615384615,2,2,2,1, ,4,4,5, ,4,2,4,4,1, ,2,8,1, , ,3,1, ,2,Tri Sigma, , , , ,5, , , , ,4,7,6,6,6,4,7,6,2,2,2,4,4,4,2,3,4,4,2,2,3,4,4,3,4,4,3,3,3,4,3,2,2,4,3,2,3,4,2,3,4,3,2,4,4,4,2,2,4,4,4,4,2,4,4,4,2,3,3,2,4,4,3,3,4,2,3,3,3,4,3,3,2,3,3,3,3,3,3,3,3,35.7777777777778,36.7222222222222,2,36.25,1,14.4444444444444,5,1,.635544532924804,.335356572676171,VCU
1997,4,4,2,3,4,2,2,3,2,2,4,2,3,2,2,3,3.44444444444444,0,3.55555555555556,3.11111111111111,99,4.55555555555556, ,2.90909090909091,1,5,4,3,3,4,4,4,2,4,4,4,2,2,3,3,5,3,3,5,4,4,5,5,3,4,4,5,5,5,6,5,2,6,5,4,5,9:41:58,2.4,2,0,4,4,3,3,3,2,4,4,5,4,3,4,3,3,3,4,2,7,2.16666666666667,2.90909090909091,3,3,2,2,2,3,4,4,2,4,3,4,3,4,3,2,2,3,4,3,2,4,2,4,3,3,3,3,3,4,3,3,2,4,3.15384615384615,1,2,2,1, ,4,2,5, ,7,2,7,1,1, ,2,3,1, , ,1,1, ,1, , , , , , , , , , ,3,2,2,2,2,2,2,6,1,3,2,2,4,3,4,4,3,3,3,4,2,3,3,3,3,4,4,4,4,3,3,3,4,4,4,4,4,4,4,2,2,2,4,4,2,3,2,2,4,4,4,4,3,3,2,2,3,3,4,2,4,2,4,3,3,3,3.15384615384615,3,3,4,4,3,3,4,2,3,2,4,2,4,2,35.7777777777778,36.2222222222222,2,36,1,11.1111111111111,5,1,.152440017259717,1.28912297203042,VCU
1993,3,3,1,3,1,2,2,2,3,1,2,2,2,2,3,3,3.61111111111111,0,4,4.44444444444444,94,3, ,2.09090909090909,1,2,5,3,6,2,6,3,3,6,4,5,1,2,2,6,1,7,1,5,3,5,2,5,1,2,2,3,2,5,3,2,2,4,2,2,4,10:43:09,2.4,2,0,4,4,4,5,3,4,4,4,4,4,5,7,6,3,3,4,4,27,5.33333333333333,4.36363636363636,5,5,5,5,3,3,4,4,5,4,5,5,5,4,5,4,4,4,4,5,2,1,1,4,2,3,1,2,1,2,4,2,3,2,2.15384615384615,2,2,2,1, ,2,2,5, ,8,4,5,5,2,8,2,6,3,1,5,1,1, ,1, , , , , , , , , , ,6,6,5,3,6,6,6,8,4,2,4,5,4,4,4,2,4,5,4,1,4,3,4,5,4,4,5,4,3,4,3,3,3,4,2,1,4,4,4,4,3,2,2,4,4,4,4,2,4,4,5,3,4,3,5,5,4,3,5,2,4,4,5,4,1,4,3,4,4,4,3,3,2,1,4,2,2,4,4,2,4,35.5555555555556,36.3333333333333,2,35.9444444444444,1,13.3333333333333,5,1,.284195794259286,-.0461499870655281,VCU
1995,3,3,2,2,3,2,3,3,3,2,1,3,5,1,2,2,2.83333333333333,0,4.11111111111111,2.88888888888889,37,2.05555555555556, ,2.45454545454545,1,3,3,1,4,4,2,2,4,4,2,3,4,2,4,2,1,4,2,1,1,4,2,1,2,1,2,2,2,2,1,2,1,4,4,2,3,9:37:27,2.6,2,1,4,4,4,4,4,5,4,4,4,4,5,7,5,3,3,3,3,16,6,2.27272727272727,2,3,4,4,2,1,1,1,2,2,3,3,4,2,2,2,3,4,3,3,1,4,4,4,3,4,3,3,3,3,4,3,3,3,3.38461538461538,2,2,2,1, ,4,4,5, ,8,5,5,5,1, ,2,3,1, , ,1,1, ,1, , , , , , , , , , ,7,6,6,6,6,5,5,6,2,4,2,3,4,5,2,4,4,4,3,3,2,4,4,3,3,4,4,4,3,3,4,4,2,3,3,3,3,3,3,3,4,4,4,4,3,2,5,3,3,2,4,2,2,2,5,3,4,4,4,3,5,3,3,3,3,4,2.23076923076923,3,2,3,2,2,1,3,2,3,3,1,3,2,2,35.5,35.8333333333333,2,35.6666666666667,1,17.7777777777778,5,1,-.33066449840537,-.856851426516639,VCU
1994,2,4,2,2,2,2,3,3,4,2,2,1,3,4,3,2,3.05555555555556,0,3.66666666666667,4.33333333333333,88,2.83333333333333, ,2.54545454545455,1,3,2,1,2,3,5,1,2,2,1,2,3,4,6,4,6,5,3,2,2,5,3,2,2,2,2,4,3,3,3,3,4,3,4,2,2,10:54:26,2.6,2,24,4,4,4,4,4,4,4,3,3,3,2,2,2,2,2,3,2,45,3.33333333333333,3.72727272727273,4,4,4,3,3,3,4,3,3,5,5,4,5,4,4,4,5,5,3,5,1,3,4,2,3,4,2,3,3,4,4,3,2,2,3,1,2,2,1, ,4,4,4,4,6,2,8,8,2,3,2,8,3,1,8,3,2,5,2,MLK middle school mentoring, , , , ,6, , , , ,3,3,3,3,4,4,3,10,4,4,2,4,4,2,2,5,4,2,2,3,5,4,2,3,5,5,4,4,4,4,4,3,2,3,3,3,2,2,2,4,3,2,4,3,3,2,4,2,2,3,2,4,2,4,4,4,4,4,3,2,5,3,3,3,3,1,2.61538461538462,3,3,3,2,2,2,2,2,3,2,3,3,3,4,35.3333333333333,36,2,35.6666666666667,1,10,5,1,-.154990129072611,-.189214946968665,VCU
1995,4,3,2,2,4,2,4,2,2,4,2,3,2,3,4,4,4.66666666666667,0,4,3,81,3.5, ,2.81818181818182,1,5,5,5,4,4,5,6,6,3,6,2,5,5,5,5,4,4,5,5,3,5,2,4,3,5,4,3,3,5,2,3,5,2,4,3,2,10:06:33,3.2,2,3,4,4,4,4,4,4,4,4,4,4,3,2,4,3,2,2,2,15,5.33333333333333,2.45454545454545,2,3,2,4,2,2,2,2,2,3,3,3,3,4,2,4,2,4,2,3,2,3,3,3,3,3,3,3,3,3,3,3,3,3,3,2,2,2,1, ,4,4,5, ,2,2,5,5,2,1,2,8,1, , ,1,2,1,2, , , , , , , , , , ,7,5,5,5,5,5,5,8,3,4,4,5,5,5,5,5,5,2,2,2,2,2,4,4,4,4,4,4,4,3,4,3,2,2,2,5,2,2,2,2,2,2,2,5,4,4,2,4,4,4,2,4,1,1,4,4,4,2,2,4,4,2,2,5,1,1,2.76923076923077,4,3,4,2,3,2,2,2,3,2,3,4,3,3,35.3333333333333,35.7222222222222,2,35.5277777777778,1,14.4444444444444,5,1,1.11864904858989,.383044892643883,VCU
1993,1,1,2,1,1,4,2,1,2,1,2,2,4,1,2,2,5,0,4.11111111111111,3.88888888888889,74,5.27777777777778, ,1.63636363636364,1,6,6,5,6,5,1,5,6,6,5,5,5,7,3,7,5,6,1,6,5,6,6,6,5,5,5,6,6,6,7,3,4,6,6,1,6,11:11:14,2.2,2,6,3,5,4,4,5,5,4,2,4,4,4,4,6,6,7,3,2,28,5.66666666666667,2.63636363636364,4,4,2,4,2,2,2,2,1,4,2,4,5,4,4,4,1,4,5,4,2,2,1,2,3,2,1,1,4,2,2,4,2,4,2.30769230769231,2,2,2,1, ,4,4,5, ,5,3,4,3,1, ,2,8,3,5,8,1,1, ,2,Students for Bernie,Diversity Ambassador, , , ,2,1, , , ,5,5,6,7,5,6,6,7,2,5,5,5,1,1,4,2,5,5,5,2,2,1,5,2,4,4,4,4,5,4,2,4,1,5,1,1,5,5,1,5,3,2,2,5,4,4,2,5,5,4,4,2,2,5,5,5,1,1,4,4,5,1,2,2,2,5,3.84615384615385,5,3,4,2,4,4,3,4,4,4,4,5,5,4,37.1111111111111,37.1111111111111,2,37.1111111111111,1,16.6666666666667,5,1,1.38216060258903,1.90907113161068,VCU
1992,4,4,2,2,4,4,4,4,4,3,4,2,2,2,4,2,3.88888888888889,0,2.55555555555556,4.22222222222222,45,1.77777777777778, ,3.54545454545455,1,5,5,5,4,3,5,6,4,3,5,5,1,4,2,2,5,3,3,3,2,2,2,2,2,1,3,2,1,1,1,2,1,1,1,2,3,9:35:32,2.4,2,4,3,3,3,4,3,4,2,2,1,1,4,6,4,4,4,4,4,23,4.83333333333333,4.36363636363636,5,5,5,5,5,2,3,5,3,5,5,5,5,5,3,3,3,5,5,4,1,5,5,3,3,3,5,4,2,1,4,3,3,3,3.38461538461538,2,2,1,1, ,1, ,4,4,4,4,6,6,1, ,2,3,3,1,6,1,1, ,1, , , , , , , , , , ,5,5,5,5,5,4,4,7,2,2,4,2,5,2,4,5,5,4,1,2,4,4,4,3,3,4,4,4,4,4,5,3,1,1,3,4,4,4,4,2,5,4,4,5,4,4,4,2,4,5,3,4,2,3,4,5,5,3,3,4,4,3,3,4,2,1,3.53846153846154,3,4,5,3,3,3,3,4,4,3,4,3,3,4,37.0555555555556,37.0555555555556,2,37.0555555555556,1,6.66666666666667,5,1,.503788755925235,-1.0952930263552,VCU
1969,1,1,2,2,1,2,2,2,1,2,1,4,2,5,2,2,3.61111111111111,0,3.88888888888889,1.44444444444444,71,5.05555555555556,10,1.54545454545455,1,2,2,4,4,4,4,2,5,4,4,4,4,2,4,4,5,2,5,5,2,6,7,6,2,4,6,6,4,6,5,4,4,6,5,6,7,11:04:35,3,2,4,3,4,4,3,4,4,4,4,4,4,3,4,4,4,4,6,1,15,3.16666666666667,2.36363636363636,3,3,3,2,2,2,2,2,2,2,3,1,2,2,1,1,2,1,1,2,1,1,4,3,5,4,1,3,5,2,4,5,3,1,3.15384615384615,2,1,1,3,3,1, ,2,2,2,2,3,3,2,2,2,2,1, , ,2,1, ,1, , , , , , , , , , ,2,4,3,3,2,5,3,8,1,5,5,4,4,1,2,3,3,5,4,2,3,3,4,3,3,3,4,2,3,4,2,3,3,3,4,1,4,4,4,3,3,1,3,5,4,4,3,3,4,5,4,4,3,3,3,4,3,3,4,3,4,3,4,3,4,3,3,3,3,5,2,3,2,2,3,4,2,4,4,3,3,37,37.1111111111111,2,37.0555555555556,1,14.4444444444444,5,1,.284195794259286,1.71831785173983,VCU
1986,3,4,2,3,4,4,4,4,3,4,4,3,2,2,2,2,2.5,1,3.77777777777778,3.22222222222222,57,1.94444444444444, ,3.54545454545455,1,2,3,1,3,2,2,1,5,1,1,3,3,2,4,3,1,6,2,3,1,2,2,2,2,4,3,3,1,1,1,1,3,1,1,3,1,9:43:25,2.2,2,0,3,5,4,4,5,4,4,3,3,2,2,2,4,4,3,3,3,25,2.5,3.45454545454545,5,4,4,4,4,2,3,3,3,2,4,2,4,3,4,2,3,3,4,4,1,2,3,2,5,3,1,2,2,2,4,4,4,3,2.84615384615385,2,2,1,1, ,4,4,4,2,2,2,6,5,1, ,2,5,3,1,5,3,2,2,1, , , , , , , , , , ,2,3,3,3,2,2,2,9,3,2,4,4,4,4,2,4,4,5,3,3,2,3,4,5,4,4,4,4,2,4,3,2,2,4,2,2,3,4,4,2,4,4,4,4,4,4,2,2,4,2,4,4,4,1,3,4,4,3,4,2,4,4,4,3,2,2,3.61538461538462,4,3,5,3,4,4,3,4,3,4,4,5,3,3,36.9444444444444,36.8333333333333,2,36.8888888888889,1,17.2222222222222,5,1,-.594176052404508,-.952228066452063,VCU
1991,2,5,1,3,2,2,4,5,3,2,1,1,3,1,2,1,5.33333333333333,0,3.88888888888889,2.88888888888889,97,3.72222222222222, ,2.72727272727273,1,7,5,7,7,5,6,7,7,5,1,5,6,5,7,7,1,7,1,3,3,6,5,5,3,4,4,5,2,2,2,2,4,4,5,5,3,9:38:37,1.6,2,3,3,4,3,4,4,5,5,2,4,4,4,6,6,3,3,6,6,9,3.33333333333333,2.72727272727273,4,4,4,4,4,1,1,1,2,1,4,4,4,2,4,2,1,1,5,3,1,4,5,5,3,3,1,1,2,1,3,2,3,3,2.76923076923077,2,2,2,1, ,4,2,5, ,2,2,3,1,1, ,2,3,3,1,1,1,1, ,1, , , , , , , , , , ,3,4,4,4,3,2,3,7,1,1,2,1,5,4,5,3,4,1,1,1,2,3,4,2,4,5,5,5,3,3,4,3,1,2,1,5,1,1,5,1,5,3,4,5,4,4,3,4,4,4,3,2,3,2,1,5,4,4,3,3,2,4,5,3,1,5,3.15384615384615,3,3,4,3,3,3,3,4,3,3,3,4,2,4,36.9444444444444,36.7222222222222,2,36.8333333333333,1,11.1111111111111,5,1,1.64567215658817,.573798172514733,VCU
1992,3,4,3,3,3,2,4,4,4,3,3,2,4,1,3,2,1.16666666666667,0,3.77777777777778,2.88888888888889,97,1, ,3.27272727272727,1,4,1,1,1,1,1,1,1,1,1,1,1,1,1,1,1,1,1,1,1,1,1,1,1,1,1,1,1,1,1,1,1,1,1,1,1,9:43:12,2.4,2,0,3,4,4,4,4,4,4,4,3,3,2,5,6,3,2,3,3,30,5.66666666666667,3.09090909090909,4,4,4,4,4,2,2,2,2,2,4,3,2,3,3,3,3,3,4,2,1,4,4,3,5,4,4,4,2,3,4,4,3,4,3.69230769230769,2,2,2,1, ,4,2,4,2,1, ,5,4,2,2,2,4,3,1,5,1,2,5,2,Camp Kesem, , , , ,15, , , , ,6,7,7,7,1,6,6,9,2,3,3,4,4,3,4,4,4,4,3,3,3,3,4,4,3,4,4,4,3,3,3,2,2,4,3,1,4,4,3,4,3,3,3,4,4,4,4,4,4,5,3,4,2,2,4,4,3,3,4,4,4,4,4,3,3,1,2.84615384615385,2,3,3,3,3,2,3,3,3,3,3,3,3,3,36.8888888888889,36.8888888888889,2,36.8888888888889,1,11.1111111111111,5,1,-1.64822226840106,-1.76292950590317,VCU
1990,4,4,1,4,2,4,4,2,2,4,2,2,2,2,2,2,4.5,14,3.55555555555556,2.88888888888889,94,3.11111111111111,5,3,1,6,3,5,6,2,5,6,5,5,5,3,5,3,2,6,5,7,2,4,2,2,3,2,3,2,3,3,2,2,2,2,5,7,7,2,3,11:26:13,2,2,0,3,4,4,3,4,3,2,4,4,4,3,2,4,3,3,3,1,19,5.5,2.90909090909091,4,4,4,4,2,2,2,2,2,2,4,2,3,2,4,2,4,2,3,4,1,2,4,2,3,3,2,2,2,2,3,3,4,3,2.69230769230769,2,1,1,1, ,4,4,2,1,2,1,7,6,1, ,2,6,3,1,4,1,1, ,1, , , , , , , , , , ,6,5,4,5,7,6,5,8,3,3,4,4,4,2,4,2,3,4,2,2,2,2,4,4,4,4,4,3,3,3,4,3,2,2,2,4,3,3,3,3,4,2,3,5,4,2,2,3,2,4,2,2,3,2,3,4,4,3,2,4,4,3,2,3,1,2,3.30769230769231,3,3,5,2,3,3,3,3,3,4,4,5,3,4,36.8333333333333,36.7777777777778,2,36.8055555555556,1,13.3333333333333,5,1,.986893271590322,.0492266528698967,VCU
1995,2,4,1,4,3,3,4,4,4,2,3,3,2,2,3,4,2.38888888888889,0,4.22222222222222,2.88888888888889,87,4.33333333333333, ,3.09090909090909,1,2,2,3,2,2,2,2,3,2,2,3,2,2,2,2,5,3,2,6,3,5,5,5,5,3,3,5,3,4,4,5,3,6,4,6,3,9:47:22,2.8,2,0,3,4,4,4,4,5,5,4,4,4,1,3,4,3,2,3,1,21,3.5,3,4,3,4,3,4,2,2,2,2,3,4,2,4,3,4,3,2,2,3,3,1,4,5,4,4,3,5,1,4,4,4,5,4,3,3.84615384615385,2,2,2,1, ,4,4,5, ,2,2,5,5,2,1,2,5,1, , ,1,2,1,2,Alpha Gamma Delta, , , , ,6, , , , ,4,4,2,2,5,4,4,8,3,2,4,4,4,4,2,2,2,4,2,2,2,2,5,5,4,1,3,2,3,3,2,2,2,2,3,2,4,2,2,4,3,2,1,4,3,2,2,2,3,3,3,3,2,2,3,4,1,3,2,4,4,2,2,3,2,1,2.76923076923077,3,2,4,3,2,2,3,4,3,3,2,5,2,3,36.8333333333333,36.83,2,36.8316666666667,1,13.3333333333333,5,1,-.682013237070888,1.09836969215957,VCU
1992,1,1,1,1,1,1,5,1,1,1,1,1,5,1,3,1,4,0,5,3.55555555555556,94,2.38888888888889, ,1.36363636363636,1,1,5,3,5,7,5,5,3,3,5,2,6,3,7,1,5,3,3,1,3,3,3,3,1,2,3,2,2,3,2,2,3,3,2,2,3,11:19:33,2.2,2,1,3,5,5,5,5,5,5,5,5,5,3,4,4,2,3,3,3,33,6.33333333333333,2,4,3,4,2,1,1,1,1,2,1,2,5,4,2,4,2,2,4,4,5,1,4,2,5,5,5,5,1,5,2,5,5,1,5,3.84615384615385,2,2,2,2,2,4,4,4,2,4,2,5,5,1, ,2,2,3,8,8,1,1, ,1, , , , , , , , , , ,6,7,7,7,7,4,7,9,2,5,1,1,5,5,1,1,5,5,2,2,1,4,1,3,4,5,3,2,4,4,4,5,3,2,3,1,1,2,2,2,4,4,1,5,3,5,1,1,5,5,1,5,1,1,5,5,1,3,1,5,5,3,2,4,1,5,2.84615384615385,3,4,4,2,2,2,2,4,2,2,5,4,2,3,36.7777777777778,37.0555555555556,2,36.9166666666667,1,13.3333333333333,5,1,.591625940591614,-.570721506710364,VCU
1991,4,3,3,5,3,4,2,4,5,2,4,4,4,2,5,4,4.94444444444444,0,4,3.22222222222222,78,3.55555555555556, ,3.54545454545455,1,5,6,4,5,4,4,5,4,4,6,3,5,6,6,6,5,6,5,6,4,5,2,4,5,5,4,4,2,2,4,2,5,2,3,2,3,10:23:00,3.8,2,0,3,4,4,4,4,4,4,4,4,4,5,6,5,3,2,5,5,11,4.66666666666667,3.36363636363636,2,3,2,5,4,5,4,3,3,3,3,2,3,2,3,5,4,4,3,3,1,1,5,1,1,3,1,2,1,1,3,1,1,3,1.84615384615385,1,2,2,1, ,4,4,5, ,3,2,1,1,1, ,2,2,3,1,1,1,1, ,1, , , , , , , , , , ,3,5,5,4,6,5,4,7,1,3,4,5,5,3,3,3,3,4,3,2,3,4,4,4,4,4,4,4,4,4,5,5,3,3,4,5,5,5,2,2,3,3,3,3,3,3,4,5,2,4,3,5,5,3,3,5,2,3,4,2,5,3,4,3,5,3,2.92307692307692,2,1,5,3,4,3,2,3,2,3,3,2,3,4,36.7777777777778,36.7222222222222,2,36.75,1,5.55555555555556,5,1,1.33824201025584,.430733212611596,VCU
1996,2,2,1,2,2,1,2,2,2,1,2,1,2,1,3,1,4.11111111111111,0,3.77777777777778,3.88888888888889,94,2.72222222222222, ,1.72727272727273,1,7,5,2,5,6,6,5,5,6,2,4,2,2,2,2,5,7,1,1,2,7,2,2,2,2,2,2,1,2,4,2,2,6,6,1,3,9:36:37,1.6,2,4,3,5,5,5,5,5,3,2,2,2,2,2,3,2,2,2,2,12,5.16666666666667,4,5,4,5,4,4,2,4,4,5,2,5,4,4,4,4,4,4,4,5,2,2,2,5,5,3,3,5,5,3,4,5,5,4,4,4.07692307692308,2,2,2,1, ,4,2,5, ,6,4,3,3,2,1,2,3,1, , ,1,1, ,1, , , , , , , , , , ,4,5,6,6,5,5,5,7,1,2,4,4,4,2,3,5,2,5,2,2,2,2,5,5,4,5,4,4,4,4,4,4,2,2,2,2,4,4,4,2,4,4,2,4,5,4,2,2,4,5,2,3,2,2,2,4,2,2,2,4,4,3,2,2,2,2,2.07692307692308,2,2,3,2,2,1,2,2,2,2,2,4,2,3,36.7777777777778,36.8333333333333,2,36.8055555555556,1,13.3333333333333,5,1,.679463125257993,-.28459158690409,VCU
1994,2,2,2,2,4,2,4,2,2,2,5,3,4,1,4,1,4,0,4,3.88888888888889,94,4, ,2.63636363636364,1,4,4,4,4,4,4,4,4,4,4,4,4,4,4,4,4,4,4,4,4,4,4,4,4,4,4,4,4,4,4,4,4,4,4,4,4,11:56:23,2.6,2,0,3,4,4,4,4,4,4,4,4,4,4,4,3,3,2,1,1,15,5.16666666666667,4,4,4,4,4,4,4,4,4,4,4,4,4,4,2,4,4,3,4,5,5,1,1,3,3,3,3,1,2,3,3,2,4,3,3,2.61538461538462,1,2,2,1, ,4,1,5, ,3,3,3,5,2,1,2,1,3,1,2,1,1, ,1, , , , , , , , , , ,6,5,5,5,5,5,5,8,2,4,4,2,2,2,4,2,5,1,1,2,2,2,4,5,4,2,2,4,2,3,2,2,2,2,2,2,5,1,2,2,3,2,2,4,5,2,2,2,4,4,4,4,2,2,4,4,2,1,2,2,4,2,2,2,2,2,3,3,3,3,3,3,3,3,3,3,3,3,3,3,3,36.7222222222222,36.5,2,36.6111111111111,1,13.3333333333333,5,1,.591625940591614,.812239772353295,VCU
1995,3,4,3,3,3,3,3,3,3,4,4,3,3,1,3,2,4.61111111111111,0,3.77777777777778,3.33333333333333,94,3.77777777777778, ,3.27272727272727,1,4,5,4,6,6,6,4,6,4,4,4,4,5,4,5,4,4,4,4,3,4,3,4,4,3,4,4,4,4,5,4,4,4,3,3,4,11:25:27,2.4,2,0,3,4,4,4,4,4,4,3,3,4,3,3,4,3,5,3,3,14,5,3.45454545454545,4,4,4,4,4,3,3,3,3,3,3,4,3,3,4,3,3,3,3,4,2,3,2,2,2,3,2,3,2,2,3,2,2,3,2.38461538461538,2,2,2,1, ,4,4,5, ,5,1,7,7,1, ,2,5,1, , ,1,1, ,1, , , , , , , , , , ,7,4,4,4,6,5,5,6,3,4,3,3,4,3,4,4,4,4,3,2,3,3,4,3,4,4,3,4,4,4,4,4,3,3,3,3,3,4,3,4,5,2,2,3,3,3,1,2,3,3,3,3,3,2,3,4,3,3,2,3,4,3,3,4,2,3,3.30769230769231,3,4,5,3,3,3,3,3,3,3,4,4,3,3,36.7222222222222,36.5,2,36.6111111111111,1,13.3333333333333,5,1,1.0747304562567,.621486492482445,VCU
1992,4,4,3,4,4,3,4,4,2,4,4,3,3,2,4,2,6.66666666666667,0,3,3.66666666666667,68,5.22222222222222, ,3.63636363636364,1,7,7,7,7,7,7,7,7,7,7,1,7,7,7,7,7,7,7,7,1,7,7,1,7,1,7,7,5,7,1,1,7,7,7,7,7,9:38:14,2.8,2,0,3,5,5,4,4,2,4,1,1,1,4,6,3,3,3,3,1,12,1.16666666666667,2.90909090909091,2,4,2,4,2,2,4,4,4,2,2,4,4,1,4,4,4,4,4,4,2,2,5,3,3,3,2,1,2,4,5,3,3,2,2.92307692307692,2,2,2,1, ,4,4,5, ,2,2,1,1,2,1,2,3,1, , ,1,1, ,2,Student Today Alumni Tomorrow, , , , ,2, , , , ,2,1,1,1,1,1,1,7,1,4,4,4,4,1,4,4,4,4,4,3,2,3,4,3,3,4,4,3,3,4,3,2,3,2,3,3,3,4,4,3,4,4,2,1,4,4,2,4,4,3,4,2,1,3,3,5,2,2,2,2,4,2,3,2,4,4,3.15384615384615,4,3,4,2,2,3,3,3,3,4,4,5,2,4,36.7222222222222,36.6666666666667,2,36.6944444444444,1,8.88888888888889,5,1,2.69971837258472,1.86138281164297,VCU
1994,1,1,1,5,1,1,1,1,1,1,1,5,1,5,1,5,1.66666666666667,0,3,1,99,5, ,1.36363636363636,1,1,1,1,1,1,1,1,1,7,1,7,1,1,1,1,1,1,1,1,7,1,7,1,1,1,7,7,7,7,7,7,1,7,7,7,7,11:28:58,3.4,2,1,3,3,3,3,3,3,3,3,3,3,5,2,4,1,2,1,1,17,1,1,1,1,1,1,1,1,1,1,1,1,1,1,1,1,1,1,1,1,1,1,2,5,5,5,5,1,5,1,5,5,1,5,5,1,3.76923076923077,2,2,2,1, ,4,4,5, ,3,2,5,5,1, ,2,2,3,1,3,1,1, ,1, , , , , , , , , , ,1,1,1,1,1,1,1,7,2,3,3,3,2,3,1,2,3,4,4,1,1,1,1,1,1,1,1,1,1,1,1,1,1,1,1,2,1,1,1,1,1,1,1,1,1,1,1,1,1,1,1,1,1,1,1,1,1,1,1,1,1,1,1,1,1,1,3,3,3,4,3,2,3,3,3,3,3,5,3,1,3,36.6111111111111,36.7222222222222,2,36.6666666666667,1,12.7777777777778,5,1,-1.25295493740235,1.67062953177212,VCU
1994,1,1,1,1,1,1,1,1,1,1,1,3,2,1,2,5,1.72222222222222,0,3.22222222222222,4,64,1.05555555555556, ,1,1,2,2,1,2,2,3,2,2,1,1,2,1,2,2,2,1,2,1,1,1,2,1,1,1,1,1,1,1,1,1,1,1,1,1,1,1,10:49:28,2.6,2,20,3,4,4,4,4,4,3,2,2,2,3,3,2,2,2,2,2,12,3.83333333333333,3.72727272727273,4,4,4,4,2,4,4,3,4,4,4,4,4,4,4,5,4,5,2,4,1,3,4,3,2,4,1,3,4,4,5,4,3,4,3.38461538461538,2,2,1,1, ,4,4,4,2,1, ,5,4,1, ,2,6,1, , ,1,1, ,1, , , , , , , , , , ,2,5,5,5,3,3,3,6,2,2,2,4,4,5,4,4,4,4,2,2,2,2,4,4,5,5,4,5,4,4,3,3,1,1,1,3,2,2,2,2,2,2,2,5,4,4,1,2,2,2,2,4,4,1,3,4,3,3,3,2,4,3,4,4,4,4,2.69230769230769,2,3,3,3,2,2,3,2,3,3,3,4,3,3,36.6111111111111,36.6666666666667,2,36.6388888888889,1,10.5555555555556,5,1,-1.20903634506916,-1.71524118593546,VCU
1991,4,5,1,4,2,4,2,2,4,2,4,2,2,1,2,2,1.94444444444444,0,3.33333333333333,3.22222222222222,91,1.11111111111111, ,3.09090909090909,1,6,1,1,1,1,1,5,6,1,1,1,1,2,1,1,1,2,2,1,1,2,1,1,1,1,1,2,1,1,1,1,1,1,1,1,1,10:38:50,1.8,2,1,3,4,4,4,5,4,3,2,2,2,4,4,6,2,2,4,3,12,5.16666666666667,3.18181818181818,4,3,4,4,2,2,2,2,4,4,4,2,5,3,4,1,4,2,4,4,1,3,3,3,2,2,2,1,4,2,3,4,3,4,2.76923076923077,2,2,2,1, ,4,4,5, ,3,2,4,3,1, ,2,3,1, , ,2,1, ,1, , , , , , , , , , ,4,7,5,5,6,4,4,6,1,4,2,1,5,4,5,4,4,5,2,2,2,2,4,4,5,5,5,5,4,5,5,5,2,2,3,4,2,4,4,4,2,4,2,4,4,2,4,2,2,2,4,2,2,2,4,5,1,3,4,2,2,4,5,2,1,1,2.61538461538462,3,2,4,2,2,2,3,2,3,3,3,4,2,3,36.6111111111111,36.2777777777778,2,36.4444444444444,1,14.4444444444444,5,1,-1.03336197573641,-1.66755286596775,VCU
1986,3,3,2,4,4,3,4,4,4,4,2,2,1,3,2,2,5.55555555555556,0,3.55555555555556,2.88888888888889,64,4.44444444444444, ,3.36363636363636,1,7,7,7,7,6,6,5,6,6,5,4,4,4,6,7,4,7,2,4,6,5,6,6,5,3,4,6,3,3,4,3,2,6,6,4,4,10:21:22,2,2,8,3,4,3,4,2,3,4,4,4,4,3,2,2,1,2,2,1,18,5.33333333333333,2.72727272727273,4,4,4,4,2,2,2,2,2,2,2,2,3,3,4,4,2,2,2,4,2,1,2,3,5,4,2,3,2,4,4,4,4,4,3.23076923076923,2,2,2,1, ,4,4,5, ,1, ,5,5,1, ,2,7,1, , ,1,1, ,2,ROSMY, , , , ,15, , , , ,3,6,6,6,6,5,5,5,3,3,3,4,4,2,1,2,4,4,2,2,1,4,5,4,4,4,3,3,2,3,4,1,3,2,3,2,4,3,2,4,3,4,3,4,4,4,2,2,4,3,4,2,2,4,4,5,1,2,3,4,1,2,3,4,4,4,3.23076923076923,4,3,4,3,3,3,3,3,3,4,3,4,3,3,36.6111111111111,36.5555555555556,2,36.5833333333333,1,13.8888888888889,5,1,1.82134652592093,1.19374633209499,VCU
1991,2,2,2,1,1,2,2,2,2,2,1,2,2,1,2,1,1.22222222222222,0,5,2,54,1.66666666666667, ,1.72727272727273,1,2,1,1,1,2,1,1,1,1,1,1,2,2,1,1,1,1,1,1,1,1,1,1,1,7,1,1,1,7,1,1,1,1,1,1,1,10:19:03,1.6,2,0,3,5,5,5,5,5,5,5,5,5,4,3,4,3,3,3,2,16,1,2,2,2,2,2,2,2,2,2,2,2,2,2,2,2,2,2,2,2,2,2,1,5,5,5,5,1,5,1,5,5,5,5,5,5,4.38461538461539,2,2,1,1, ,4,4,4,1,4,4,3,3,2,2,2,5,1, , ,1,1, ,1, , , , , , , , , , ,1,1,1,1,1,1,1,8,2,2,4,5,4,5,5,5,2,5,5,2,2,5,2,5,5,5,5,5,2,4,5,2,2,2,2,5,5,5,2,5,2,5,2,2,2,2,2,2,5,5,2,5,5,2,4,5,5,5,4,2,2,4,2,2,5,5,3.15384615384615,3,3,3,3,5,3,3,3,3,3,3,3,5,1,36.6111111111111,36.5,1,36.5555555555556,1,8.88888888888889,5,1,-1.60430367606787,-1.19066966629063,VCU
1994,4,5,1,4,3,1,5,4,4,3,3,1,1,4,2,1,4.27777777777778,0,4.22222222222222,4,91,3.94444444444444, ,3.36363636363636,1,5,5,6,4,4,5,5,5,6,5,7,1,3,1,5,2,4,4,6,2,7,4,5,3,3,3,4,1,4,1,2,3,7,7,5,4,9:56:47,1.8,2,3,3,3,5,3,5,4,4,4,5,5,3,3,2,2,3,2,2,21,6.16666666666667,3.36363636363636,5,5,5,5,4,1,2,2,1,3,4,5,4,5,3,4,4,1,5,5,2,5,5,5,4,1,5,3,5,3,5,5,5,4,4.23076923076923,2,2,2,1, ,4,2,4,1,8,6,5,5,1, ,2,5,1, , ,3,2,3,1, , , , , , , , , , ,5,7,7,7,5,6,5,8,3,2,1,3,5,1,5,1,5,1,1,1,1,1,3,5,4,3,2,4,4,4,3,3,2,2,3,4,3,5,5,3,3,1,3,5,5,5,1,1,4,5,3,4,1,1,4,5,2,2,4,1,5,3,4,3,4,2,2.69230769230769,3,3,5,2,1,2,2,2,4,2,4,5,3,2,36.6111111111111,36.3888888888889,2,36.5,1,14.4444444444444,5,1,.811218902257563,.764551452385583,VCU
1994,3,4,3,3,4,3,3,3,3,3,2,3,3,3,3,3,2.66666666666667,0,4,3.11111111111111,92,2, ,3.09090909090909,1,7,3,1,1,1,4,1,1,2,1,6,2,6,2,2,4,1,3,2,2,1,2,2,1,2,2,4,2,2,3,3,1,2,2,1,2,11:20:13,3,2,8,3,5,5,5,5,5,3,2,3,3,2,7,4,3,3,1,4,32,3.66666666666667,3.36363636363636,4,3,4,4,4,3,3,3,3,2,4,3,3,3,3,3,4,3,3,3,1,4,5,3,4,4,3,4,1,4,4,4,3,4,3.61538461538462,2,2,1,2,1,4,2,4,2,3,5,8,8,2,1,2,4,3,3,3,1,2,5,1, , , , , , , , , , ,2,4,4,4,4,4,4,11,3,4,4,2,3,4,3,4,4,4,4,2,3,2,2,3,4,5,3,4,3,3,4,2,2,2,3,3,2,3,4,2,2,2,4,4,4,3,1,5,4,4,2,4,4,2,3,4,5,5,3,3,5,5,4,4,3,3,2.53846153846154,3,3,3,3,2,2,3,2,2,2,3,4,2,3,36.5,36.1111111111111,2,36.3055555555556,1,10,5,1,-.462420275404939,-.904539746484351,VCU
1993,2,2,1,2,2,1,2,2,2,2,2,1,2,1,3,2,5.72222222222222,6,3.55555555555556,3.77777777777778,64,2.61111111111111, ,1.81818181818182,1,7,7,5,7,6,7,7,7,7,2,6,6,6,2,6,6,7,2,2,2,6,2,2,3,2,2,2,2,2,3,2,2,2,6,2,3,9:58:37,1.8,2,14,3,4,4,4,4,4,2,2,4,4,4,5,4,3,2,2,2,20,2.66666666666667,3.63636363636364,4,4,4,4,4,4,4,4,2,2,4,4,4,4,4,4,4,4,2,4,2,2,2,3,4,2,1,2,2,1,2,2,4,4,2.38461538461538,2,2,2,1, ,4,4,5, ,4,3,2,2,1, ,2,4,3,1,8,1,1, ,1, , , , , , , , , , ,3,4,2,2,3,2,3,7,1,4,5,4,4,3,1,3,4,5,4,1,1,4,4,2,4,5,4,4,3,4,3,3,3,4,3,1,5,4,4,4,5,4,2,5,4,3,2,4,4,4,3,4,3,1,2,5,4,4,3,2,5,4,4,4,1,3,3.15384615384615,3,3,4,3,3,3,3,4,3,3,3,5,2,4,36.5,36.2222222222222,2,36.3611111111111,1,10.5555555555556,5,1,1.9531023029205,-.379968226839515,VCU
1993,2,4,1,4,4,2,5,4,3,2,2,2,2,2,3,2,4.11111111111111,0,3.77777777777778,4.44444444444444,74,3.16666666666667, ,3,1,4,4,2,5,3,6,5,4,4,4,6,5,5,2,4,5,2,4,5,2,2,3,3,2,4,3,4,3,4,4,3,4,2,3,2,4,9:34:43,2.2,2,8,3,4,4,4,5,5,4,2,3,3,3,5,4,5,3,3,2,23,1.33333333333333,4,5,4,4,5,2,3,5,5,3,4,4,5,5,3,4,5,4,4,5,5,2,3,5,5,4,3,3,2,4,3,5,5,3,2,3.61538461538462,2,2,2,1, ,2,2,5, ,4,4,7,8,1, ,2,5,3,1,6,1,1, ,1, , , , , , , , , , ,1,2,1,1,2,1,1,7,3,3,4,5,4,2,5,4,2,2,2,1,3,2,4,3,2,5,4,4,4,4,3,4,2,1,3,3,4,5,3,4,3,2,2,5,4,2,1,2,5,3,4,5,3,3,5,4,4,3,3,2,4,3,3,3,2,4,2.38461538461538,3,3,3,1,2,2,2,2,2,2,3,4,2,4,36.5,36.6666666666667,2,36.5833333333333,1,8.88888888888889,5,1,.679463125257993,.096914972837609,VCU
1995,4,4,2,4,4,2,4,4,4,2,2,2,2,2,4,2,2.16666666666667,0,4.22222222222222,3.11111111111111,74,5.05555555555556, ,3.27272727272727,1,2,2,2,2,2,3,2,2,2,2,5,2,2,1,2,2,2,2,5,3,6,5,5,5,5,6,6,5,2,5,5,5,5,6,6,6,9:31:39,2.4,2,2,3,5,4,5,4,4,4,4,4,4,3,4,5,3,3,3,3,25,4.33333333333333,2.90909090909091,4,4,4,4,2,2,2,2,2,2,4,2,4,2,4,2,2,4,4,4,2,4,3,3,3,4,4,3,4,4,4,4,4,4,3.69230769230769,2,2,2,1, ,4,4,5, ,3,3,4,4,2,2,2,5,3,1,5,1,2,2,2,Social club, , , , ,2, , , , ,4,5,5,4,4,4,4,9,2,2,3,2,5,2,3,2,4,4,2,2,2,2,4,3,4,4,4,4,4,3,3,3,2,2,2,5,2,4,5,2,4,2,4,4,4,4,2,4,4,5,4,4,4,2,3,4,4,4,4,2,4,4,4,4,2,4,3,3,3,4,2,3,3,3,3,4,3,3,5,2,3,36.5,36.5555555555556,2,36.5277777777778,1,8.88888888888889,5,1,-.857687606403647,1.71831785173983,VCU
1987,2,2,2,2,2,3,4,2,2,2,2,2,2,2,2,2,2.94444444444444,0,2.33333333333333,2.88888888888889,82,2.38888888888889, ,2.27272727272727,1,3,3,2,2,2,3,5,2,5,3,5,2,2,2,2,3,5,2,2,2,3,2,2,2,2,2,2,2,2,2,2,2,3,3,2,6,9:54:18,2,2,5,3,2,4,2,2,4,2,2,2,1,5,7,6,6,5,6,6,37,3.33333333333333,3.09090909090909,4,4,4,2,4,2,2,4,4,2,2,4,4,2,4,2,2,3,2,3,1,2,5,4,4,3,2,3,4,4,4,4,4,4,3.61538461538462,2,2,1,2,2,4,2,4,4,6,4,4,4,2,2,2,3,3,8,4,1,1, ,2,GK HONOR SOCIETY, , , , ,5, , , , ,3,4,4,3,3,3,3,10,1,3,3,4,4,2,2,2,2,4,2,1,2,2,4,3,4,4,4,4,4,4,4,4,4,2,2,1,2,2,4,4,4,4,2,5,3,4,3,2,2,2,4,2,2,2,4,4,4,3,4,3,2,4,4,4,4,4,2.53846153846154,2,3,3,3,2,4,2,2,3,2,3,4,2,2,36.4444444444444,36.7222222222222,2,36.5833333333333,1,11.1111111111111,5,1,-.24282731373899,-.570721506710364,VCU
1995,2,4,2,4,2,2,2,2,4,2,2,2,2,2,4,2,2.77777777777778,0,4.33333333333333,2.88888888888889,68,2.83333333333333, ,2.54545454545455,1,2,2,2,2,2,2,2,5,3,5,3,2,5,2,2,2,2,5,2,3,2,3,2,2,2,3,3,2,3,2,2,2,3,6,3,6,19:51:09,2.4,2,4,3,5,5,5,5,5,4,4,2,4,3,3,4,1,3,2,2,49,4.66666666666667,3.36363636363636,5,5,5,5,2,1,1,2,4,2,5,4,4,1,4,1,2,4,2,4,2,5,5,5,4,1,5,4,5,4,4,4,4,4,4.15384615384615,2,2,2,1, ,4,4,5, ,8,1,8,8,2,6,2,8,3,1,8,1,2,5,2,Sorority,Honor society, , , ,55,15, , , ,5,5,5,5,5,3,4,9,5,2,2,2,4,4,2,2,4,4,2,2,2,2,4,4,3,4,2,4,2,4,4,2,2,3,2,2,2,4,4,4,5,2,2,4,4,4,2,2,4,4,2,2,2,2,1,4,1,4,4,2,4,4,4,3,2,4,2.84615384615385,4,3,2,3,2,3,3,4,3,2,4,5,2,2,36.3888888888889,36.4444444444444,2,36.4166666666667,1,10.5555555555556,5,1,-.37458309073856,-.189214946968665,VCU
1993,2,4,2,4,2,3,3,3,4,3,3,3,2,1,4,2,3.83333333333333,0,3.22222222222222,2.33333333333333,68,4.72222222222222, ,3,1,5,5,5,5,4,4,4,4,6,2,5,4,1,1,5,4,4,1,4,4,6,6,4,4,5,6,6,4,3,6,4,5,5,6,4,3,11:07:01,2.4,2,5,3,5,3,4,5,3,2,4,2,1,1,2,1,2,2,2,2,22,2.83333333333333,2.54545454545455,2,3,4,2,3,1,1,2,2,4,4,3,4,1,4,1,1,2,1,4,1,3,1,3,3,2,3,2,3,2,4,5,4,3,2.92307692307692,2,2,2,1, ,4,1,5, ,3,2,1,1,1, ,2,1,3,8,8,1,1, ,1, , , , , , , , , , ,2,3,3,4,3,2,2,7,0,2,4,5,4,3,3,2,3,5,4,3,1,3,4,4,3,4,2,4,2,3,3,3,2,3,2,1,3,4,3,3,4,3,2,4,2,2,3,3,4,3,3,2,1,3,4,4,2,1,1,3,3,3,1,1,2,1,3,3,3,4,2,3,3,3,3,3,3,3,5,3,3,36.3888888888889,36.6111111111111,2,36.5,1,10.5555555555556,5,1,.459870163592045,1.43218793193356,VCU
1994,3,2,2,4,1,2,2,3,3,2,2,2,3,2,4,3,1.61111111111111,0,5,4.11111111111111,100,3.05555555555556, ,2.36363636363636,1,1,1,1,2,1,2,1,2,1,1,5,1,2,1,1,1,4,1,2,6,4,1,3,2,1,1,1,2,6,4,6,1,6,6,1,2,10:57:16,2.8,2,0,3,5,5,5,5,5,5,5,5,5,4,3,5,2,2,3,4,20,5,4,4,4,4,4,4,4,4,4,4,4,4,4,4,4,4,4,4,4,4,5,1,4,3,4,4,4,2,2,2,2,3,2,4,3,3,2,2,2,1, ,2,2,5, ,8,4,5,5,2,2,2,2,3,1,4,1,1, ,1, , , , , , , , , , ,6,7,5,6,2,4,4,8,2,1,4,4,3,2,4,2,4,5,3,1,3,3,4,4,4,4,4,4,4,4,4,4,2,2,2,2,5,4,4,5,3,3,2,3,5,4,3,4,4,4,4,4,4,2,4,4,4,4,4,3,4,3,4,4,3,2,2.84615384615385,3,4,3,2,2,4,3,3,2,3,3,5,3,2,36.3888888888889,36.6111111111111,2,36.5,1,12.7777777777778,5,1,-1.29687352973554,.00153833290218414,VCU
1992,4,4,1,2,2,4,3,1,1,2,1,2,2,2,1,2,2.72222222222222,2,4.11111111111111,2.33333333333333,88,2, ,2.27272727272727,1,2,2,1,3,2,3,5,2,2,1,3,1,2,3,5,6,5,1,2,2,5,1,1,1,2,1,3,2,1,2,1,3,2,3,2,2,10:38:39,1.8,2,0,3,4,4,4,4,5,5,5,3,3,3,3,5,2,3,3,4,24,4,1.54545454545455,2,2,2,2,1,1,1,1,2,1,2,2,4,2,4,1,1,2,1,4,1,2,4,4,4,4,1,3,5,4,5,2,5,3,3.53846153846154,2,2,2,1, ,4,4,2,1,2,2,4,4,1, ,2,8,3,2,7,3,1, ,1, , , , , , , , , , ,3,5,5,3,4,4,3,8,2,5,2,2,5,2,2,3,4,2,1,1,2,4,4,4,3,5,5,5,5,1,5,4,1,1,4,4,1,2,5,1,5,3,3,4,4,2,5,3,2,4,4,1,4,1,2,5,4,3,2,2,5,4,3,4,2,4,2.38461538461538,2,4,4,2,2,2,2,3,2,2,2,5,2,2,36.3888888888889,36.3888888888889,2,36.3888888888889,1,5.55555555555556,5,1,-.418501683071749,-.904539746484351,VCU
1990,2,4,2,3,2,2,2,2,2,2,2,3,3,2,4,2,2.27777777777778,0,3.55555555555556,3.11111111111111,49,2.05555555555556, ,2.27272727272727,1,2,2,2,2,3,2,2,2,2,2,6,2,2,2,2,2,2,2,2,2,2,2,2,2,2,2,2,3,2,3,2,1,2,2,1,3,9:38:48,2.8,2,8,3,4,4,5,5,4,2,2,2,4,5,5,5,5,5,5,5,34,3.5,2.36363636363636,4,2,2,3,2,2,2,2,2,3,2,4,4,2,4,2,4,2,2,4,1,2,2,3,4,2,3,3,2,2,3,4,2,4,2.76923076923077,1,2,1,1, ,4,4,4,4,1, ,3,5,1, ,2,8,3,8,8,4,1, ,1, , , , , , , , , , ,3,5,4,5,2,2,2,7,3,4,2,4,4,4,4,4,4,4,2,2,4,3,4,2,4,4,4,4,3,3,4,2,2,2,2,4,4,4,4,3,2,4,4,4,4,2,2,2,2,2,4,1,1,2,4,3,4,4,3,2,2,4,3,3,4,1,2.76923076923077,2,3,4,2,3,3,3,3,2,3,3,4,2,3,36.3888888888889,36.5,2,36.4444444444444,1,10.5555555555556,5,1,-.769850421737267,-.856851426516639,VCU
1971,1,2,1,2,1,1,2,4,2,1,1,1,2,5,1,1,4.61111111111111,0,4.22222222222222,3.44444444444444,34,4.55555555555556, ,1.63636363636364,1,6,3,1,6,7,5,4,7,3,6,1,7,5,5,6,3,7,1,7,3,7,3,5,1,5,5,4,3,5,7,3,5,6,6,2,5,11:12:57,2,2,76,3,5,5,5,5,5,5,1,2,5,4,6,7,4,6,4,3,22,6.66666666666667,2.81818181818182,4,4,2,5,2,1,2,2,5,2,2,4,4,4,4,5,2,1,5,2,2,5,5,1,4,4,2,5,2,1,5,5,5,5,3.76923076923077,2,2,4,2,2,4,4,5, ,2,2,5,5,2,1,2,8,1, , ,4,2,3,1, , , , , , , , , , ,7,7,7,7,6,6,7,9,3,1,4,1,5,4,5,5,1,5,2,1,5,5,4,5,5,5,5,3,5,3,4,4,2,3,3,4,5,4,4,2,5,1,5,5,4,4,1,1,2,5,5,5,4,2,5,5,5,5,2,2,4,5,1,3,2,4,2.30769230769231,1,2,5,1,1,1,3,4,2,3,1,5,1,5,36.3333333333333,36.3333333333333,2,36.3333333333333,1,8.88888888888889,5,1,1.0747304562567,1.28912297203042,VCU
1992,3,5,3,4,4,3,4,5,4,3,4,2,4,2,4,2,5.05555555555556,2,2.22222222222222,3.11111111111111,93,3.83333333333333, ,3.81818181818182,1,6,6,6,6,5,7,6,6,5,3,2,3,5,6,5,3,6,5,6,5,6,5,5,3,3,5,5,3,3,3,2,3,3,5,2,2,10:25:42,2.8,2,12,3,4,2,2,2,2,2,2,2,2,2,2,1,2,2,2,2,12,5.66666666666667,3,4,4,4,4,2,2,2,2,2,3,4,2,4,3,4,4,2,2,4,3,1,1,2,2,2,2,1,1,2,1,2,2,3,1,1.69230769230769,2,2,2,1, ,4,2,5, ,5,2,3,3,1, ,2,3,3,1,2,1,1, ,1, , , , , , , , , , ,7,6,5,5,6,5,5,7,1,1,2,3,4,4,2,2,4,2,2,1,4,4,4,2,3,4,4,4,2,4,3,2,2,4,2,4,1,2,5,1,5,4,2,2,2,2,2,2,4,4,2,4,4,2,2,5,4,4,4,2,4,4,3,4,2,4,3.84615384615385,2,4,5,4,4,4,3,5,4,3,4,5,4,4,36.3333333333333,36.5,2,36.4166666666667,1,13.8888888888889,5,1,1.42607919492222,.669174812450158,VCU
1993,2,1,2,2,2,2,2,2,2,2,2,2,3,2,2,2,2.44444444444444,0,4.55555555555556,3.66666666666667,88,2, ,1.90909090909091,1,1,5,2,4,4,2,2,2,3,2,4,1,1,2,1,2,5,1,2,1,6,1,1,2,2,1,6,1,1,1,1,1,4,3,1,1,10:21:10,2.2,2,5,3,5,5,5,5,5,4,2,5,5,4,6,4,5,4,4,1,31,4.83333333333333,3.72727272727273,4,4,4,4,3,4,3,4,3,4,4,3,4,4,4,4,3,4,3,4,1,3,3,4,3,2,2,2,4,3,4,3,4,3,3.07692307692308,2,2,2,1, ,4,2,4,2,4,1,8,6,2,1,2,6,3,1,5,5,1, ,2,PSP, , , , ,80, , , , ,7,5,5,4,4,4,4,9,4,2,4,4,4,2,4,4,3,4,4,2,3,4,5,3,4,4,3,5,4,4,4,4,2,2,2,3,4,4,4,4,2,4,2,3,4,3,2,2,4,2,3,3,3,4,4,4,4,4,2,4,4,2,2,2,2,2,2.61538461538462,2,2,3,3,3,2,3,2,3,3,3,4,2,3,36.3333333333333,36.2777777777778,2,36.3055555555556,1,10,5,1,-.638094644737698,-.904539746484351,VCU
1994,2,2,2,2,2,4,2,2,2,1,1,2,2,1,1,2,1.72222222222222,0,4.33333333333333,2.44444444444444,91,2.66666666666667, ,2,1,2,1,2,1,2,1,1,1,2,3,1,1,2,2,1,3,2,3,2,2,4,3,2,2,3,2,3,3,2,5,3,2,3,3,2,2,9:26:25,1.6,2,0,3,5,5,5,5,5,4,2,4,4,4,3,6,2,2,3,3,28,5.83333333333333,2.72727272727273,4,4,5,4,2,1,1,1,4,2,2,2,2,2,4,2,2,2,2,4,2,3,5,5,3,3,3,3,4,4,5,2,5,4,3.76923076923077,2,2,2,1, ,4,4,5, ,8,4,8,8,2,1,2,7,1, , ,1,2,2,2,Alpha Gamma Delta, , , , ,75, , , , ,6,5,5,5,7,7,6,8,3,4,4,4,4,1,4,2,5,2,2,1,2,3,3,4,4,4,4,3,4,3,4,4,2,2,3,3,4,4,2,4,1,2,1,4,5,4,4,2,3,2,4,2,2,4,4,4,2,2,2,4,4,1,4,2,2,4,2.46153846153846,2,3,3,2,2,1,3,3,2,2,4,4,2,3,36.3333333333333,36.3333333333333,2,36.3333333333333,1,14.4444444444444,5,1,-1.20903634506916,-.332279906871803,VCU
1994,2,2,2,2,2,2,2,2,2,2,2,3,3,2,3,2,3.61111111111111,14,4.77777777777778,2.88888888888889,94,2.72222222222222, ,2,1,2,5,4,2,4,6,3,5,5,2,3,3,2,2,5,5,5,2,2,3,3,2,2,2,2,3,2,3,3,3,4,3,2,3,2,5,10:14:34,2.6,2,0,3,5,5,5,5,5,5,4,5,4,3,3,3,3,4,2,2,19,3.16666666666667,3.09090909090909,4,4,4,4,2,2,2,2,4,2,4,4,4,2,4,2,2,2,2,4,2,3,3,3,4,4,2,3,3,4,3,5,4,2,3.30769230769231,1,2,2,1, ,4,4,2,2,8,4,4,4,1, ,2,5,1, , ,1,2,3,1, , , , , , , , , , ,3,4,3,3,3,3,2,8,2,4,4,4,4,2,4,3,3,4,4,4,4,4,4,4,2,4,4,4,2,4,4,2,2,2,4,2,4,4,2,4,4,2,4,4,4,3,2,4,4,4,4,4,3,4,4,5,2,3,4,2,4,2,3,3,4,4,2.38461538461538,2,3,3,2,3,2,2,2,3,2,3,4,2,2,36.28,36.28,2,36.28,1,13.3333333333333,5,1,.284195794259286,-.28459158690409,VCU
1994,3,2,2,3,3,2,4,3,2,4,4,4,2,3,4,2,2.66666666666667,0,4.77777777777778,2.66666666666667,54,3.38888888888889, ,2.90909090909091,1,2,3,2,3,3,4,4,3,4,2,2,2,2,2,2,3,2,3,5,3,5,4,5,4,3,4,4,2,2,2,2,5,3,3,3,2,11:08:17,3,2,8,3,5,5,4,5,5,5,4,5,5,4,6,5,5,5,5,4,18,4.83333333333333,3.27272727272727,4,4,4,4,4,2,2,3,3,3,3,2,3,2,3,2,2,4,2,4,1,4,4,4,3,4,3,3,4,4,4,4,4,4,3.76923076923077,2,2,2,1, ,4,4,5, ,3,3,4,4,1, ,2,3,3,1,4,1,1, ,1, , , , , , , , , , ,3,5,5,5,5,6,6,7,1,4,4,2,5,5,4,3,5,2,2,2,2,2,4,4,4,3,2,4,4,3,4,4,2,2,3,4,2,2,4,3,4,3,4,4,4,4,2,2,4,4,2,4,2,2,4,4,2,2,2,4,4,4,3,4,2,4,3.15384615384615,3,3,4,3,3,3,3,3,3,3,4,4,3,3,36.2777777777778,36.6111111111111,2,36.4444444444444,1,7.22222222222222,5,1,-.462420275404939,.287668252708459,VCU
1996,2,4,2,4,4,1,2,3,3,2,1,1,1,4,2,1,2.05555555555556,0,4.77777777777778,4.22222222222222,97,3, ,2.54545454545455,1,1,2,2,3,2,2,2,3,2,2,1,2,1,1,5,1,3,2,5,2,6,5,5,2,4,2,2,2,2,2,2,2,2,3,4,2,10:50:27,1.8,2,7,3,4,5,5,5,5,5,4,5,5,2,3,2,2,2,2,2,28,5.16666666666667,3.63636363636364,4,4,4,4,4,2,3,4,2,4,5,3,5,3,5,4,4,5,5,4,1,2,2,3,2,2,2,3,1,2,3,2,2,2,2.15384615384615,2,2,2,1, ,4,4,5, ,6,3,8,8,2,1,2,8,3,1,8,1,1, ,2,BPSA, , , , ,1, , , , ,5,5,6,6,5,4,4,8,3,4,5,5,2,1,5,5,1,5,5,2,1,1,4,3,3,3,3,4,5,4,4,4,4,4,4,1,5,5,2,5,3,5,4,5,4,2,2,1,4,4,2,5,1,3,5,4,2,2,4,3,5,1,3,2,1,5,2.61538461538462,2,2,4,3,3,2,2,2,3,3,2,5,3,3,36.2777777777778,36.5555555555556,2,36.4166666666667,1,11.1111111111111,5,1,-.945524791070026,-.0461499870655281,VCU
1993,2,2,4,3,2,4,4,2,2,2,2,2,4,3,3,1,2.72222222222222,0,4.11111111111111,1.55555555555556,84,2.05555555555556, ,2.63636363636364,1,1,6,2,3,2,2,2,2,3,2,2,2,2,3,5,2,6,2,2,2,2,2,2,2,2,1,2,2,2,2,2,4,2,2,2,2,9:49:46,2.6,2,0,3,4,4,4,4,5,4,4,4,4,5,5,4,2,2,2,2,28,2.66666666666667,2.27272727272727,3,2,3,3,2,2,2,2,2,2,2,2,1,2,1,1,2,2,1,2,1,4,3,2,4,4,3,1,2,2,4,4,1,4,2.92307692307692,2,2,1,1, ,4,4,4,1,5,3,8,8,1, ,2,8,1, , ,8,2,3,1, , , , , , , , , , ,3,2,3,4,2,2,3,8,4,3,3,4,4,2,2,4,2,4,4,5,3,5,2,2,5,5,4,4,4,4,4,4,2,2,4,2,3,4,2,3,3,2,2,1,1,2,5,4,2,2,4,2,4,3,4,2,3,4,4,4,4,2,4,2,4,2,1.76923076923077,2,2,1,2,2,2,1,2,2,2,2,4,2,1,36.2777777777778,36.0555555555556,2,36.1666666666667,1,13.8888888888889,5,1,-.418501683071749,-.856851426516639,VCU
1994,5,3,2,4,4,5,4,4,3,4,4,2,4,2,2,4,4.94444444444444,0,3.55555555555556,3.22222222222222,91,3.11111111111111,0,3.81818181818182,1,6,5,5,6,4,6,5,5,5,5,6,4,6,5,5,4,4,3,3,3,2,3,3,3,5,2,3,3,1,5,3,6,1,5,2,3,11:41:21,2.8,2,4,3,4,3,4,2,3,4,3,4,5,4,6,6,6,5,6,1,14,6.16666666666667,3.09090909090909,5,3,2,4,3,2,2,4,2,4,3,4,4,2,3,4,2,3,3,4,2,3,3,4,2,2,4,1,3,3,4,3,4,2,2.92307692307692,1,1,2,1, ,4,4,5, ,2,2,4,3,2,2,2,3,1, , ,2,1, ,1, , , , , , , , , , ,6,6,6,5,7,7,5,7,1,2,4,4,4,4,4,2,2,5,4,4,4,5,4,4,4,5,5,5,3,4,3,2,2,3,3,2,3,4,4,2,3,4,2,4,2,2,4,3,2,2,4,2,4,2,3,3,4,4,3,2,4,4,4,3,1,3,2.76923076923077,2,3,3,3,2,3,3,3,2,3,5,4,2,2,36.2444444444444,36.1277777777778,2,36.1861111111111,1,14.4444444444444,5,1,1.33824201025584,.0492266528698967,VCU
1995,2,3,2,2,2,1,2,2,2,2,3,3,2,3,3,3,2.33333333333333,20,4.66666666666667,3.33333333333333,82,2.33333333333333, ,2.09090909090909,1,2,2,2,3,2,3,2,2,2,2,2,2,3,2,2,4,2,3,4,2,3,3,2,2,2,3,2,2,2,2,2,2,2,2,3,2,11:18:51,2.8,2,0,3,5,5,5,5,5,5,4,4,4,4,4,4,2,3,5,1,29,3.33333333333333,2.90909090909091,4,3,4,4,4,1,2,2,2,2,4,3,4,3,4,4,2,4,2,4,1,4,4,4,4,3,4,2,4,4,4,4,4,4,3.76923076923077,2,2,2,1, ,4,4,5, ,7,7,3,3,1, ,2,5,3,1,8,1,2,4,1, , , , , , , , , , ,5,3,3,3,3,3,3,8,2,3,3,4,2,2,4,2,4,4,3,2,2,2,4,4,3,2,2,3,3,3,3,3,3,3,3,1,4,3,3,4,2,4,5,4,4,3,2,2,4,3,3,3,3,3,4,4,2,2,3,3,4,2,3,3,4,4,2.23076923076923,2,3,3,2,2,2,2,2,2,2,3,4,2,2,36.2222222222222,36.8333333333333,2,36.5277777777778,1,10,5,1,-.725931829404077,-.618409826678077,VCU
1994,4,4,4,2,3,4,4,3,2,4,4,2,3,1,2,2,2.77777777777778,1,3.77777777777778,3.55555555555556,91,2.11111111111111, ,3.45454545454545,1,2,2,3,3,4,2,2,3,2,2,1,2,6,4,2,4,2,4,3,2,2,2,2,2,4,2,2,2,2,2,2,2,2,2,1,2,10:53:00,2,2,1,3,4,4,4,4,4,3,3,4,4,4,5,4,4,4,2,2,17,5.5,3.90909090909091,4,4,4,4,4,4,4,4,4,3,4,4,4,2,4,3,3,4,4,4,2,3,3,4,3,3,2,2,2,3,3,4,3,3,2.92307692307692,2,2,2,1, ,4,4,5, ,4,1,4,4,1, ,2,3,3,1,5,1,1, ,1, , , , , , , , , , ,5,6,6,6,5,5,5,7,1,2,4,4,4,4,4,4,4,4,3,2,4,4,4,4,4,5,4,4,3,3,4,4,2,2,2,1,4,5,5,3,4,4,2,4,4,3,4,3,4,4,4,4,4,2,4,4,4,4,4,2,5,4,4,4,2,4,3.07692307692308,3,4,4,3,3,3,3,3,2,3,3,4,2,4,36.2222222222222,36.8333333333333,2,36.5277777777778,1,14.4444444444444,5,1,-.37458309073856,-.809163106548926,VCU
1994,1,4,1,4,1,1,1,2,1,1,2,2,1,1,2,1,1.94444444444444,0,4.33333333333333,2.22222222222222,85,2.27777777777778, ,1.72727272727273,1,1,1,2,1,5,2,1,1,2,2,2,5,2,3,1,2,1,1,5,1,5,1,1,5,1,2,2,2,3,2,2,2,1,3,1,2,10:20:01,1.4,2,10,3,5,4,5,4,4,4,4,4,5,5,6,5,3,2,2,4,10,4.83333333333333,2,2,2,2,2,2,2,2,2,2,2,2,2,2,2,4,2,1,1,2,4,1,4,1,2,3,2,4,3,3,3,4,3,4,2,2.92307692307692,2,2,2,1, ,4,4,5, ,4,2,2,2,1, ,2,5,1, , ,1,1, ,1, , , , , , , , , , ,4,7,4,5,5,4,4,6,2,2,2,4,4,2,4,4,4,4,4,2,2,2,4,3,3,4,3,4,3,3,4,3,2,4,3,2,4,4,4,4,2,4,4,5,3,4,3,2,4,4,4,4,2,2,4,4,2,2,4,4,4,2,4,3,2,4,2.07692307692308,2,2,3,2,2,2,2,2,2,2,2,4,2,2,36.2222222222222,36.3333333333333,2,36.2777777777778,1,10.5555555555556,5,1,-1.03336197573641,-.666098146645789,VCU
1995,2,2,2,2,2,2,4,2,2,3,2,3,3,2,2,2,2.83333333333333,0,3.88888888888889,3.55555555555556,58,3.55555555555556, ,2.27272727272727,1,2,2,2,2,2,5,3,2,3,1,2,4,3,3,5,2,5,3,2,3,5,5,3,3,2,4,4,4,2,4,3,3,5,5,3,4,10:59:59,2.4,2,6,3,4,4,4,4,4,4,3,4,4,4,4,2,2,2,4,4,22,3.16666666666667,3.63636363636364,4,4,3,4,4,4,3,4,2,4,4,4,4,2,4,4,2,4,4,4,2,4,4,5,4,3,4,3,3,2,3,4,5,3,3.61538461538462,2,2,2,1, ,4,4,5, ,8,3,3,1,2,5,2,1,3,1,6,1,1, ,1, , , , , , , , , , ,3,4,3,3,3,3,3,8,2,2,4,4,4,2,4,3,4,4,4,2,2,2,4,4,3,2,2,3,4,4,3,4,3,3,3,2,4,4,4,4,4,4,3,4,4,4,3,4,4,4,4,3,2,3,4,4,3,2,3,2,4,2,4,2,2,4,2.69230769230769,2,3,4,3,2,2,3,2,2,3,3,4,4,2,36.1666666666667,36.3333333333333,2,36.25,1,13.8888888888889,5,1,-.33066449840537,.430733212611596,VCU
1994,2,2,2,4,3,3,3,2,3,3,3,2,2,3,3,3,2.66666666666667,2,3.55555555555556,3,81,3.77777777777778, ,2.72727272727273,1,3,2,2,2,4,2,2,3,3,5,5,2,2,2,2,2,2,3,3,2,2,4,3,4,2,4,6,3,3,4,4,5,5,5,5,4,10:59:16,2.6,2,4,3,2,4,4,3,4,4,3,4,4,4,5,4,3,5,2,2,27,4,3.18181818181818,4,4,4,4,3,2,3,3,2,2,4,3,2,2,3,4,3,3,3,4,2,3,3,3,4,3,2,3,3,4,3,3,3,3,3.07692307692308,2,2,2,1, ,4,4,5, ,3,3,2,2,2,3,2,3,3,1,1,2,1, ,2,church,group chat,cousins, , ,2,5,3, , ,4,4,4,4,4,4,4,8,1,4,4,3,4,3,2,4,4,4,4,3,3,4,4,3,4,3,3,4,4,4,3,4,3,3,3,4,2,4,4,3,4,2,4,4,3,3,2,2,4,4,4,3,3,3,4,4,4,3,4,3,4,4,4,4,4,3,3.30769230769231,4,4,4,3,2,3,3,4,3,3,4,4,2,4,36.1666666666667,36.7222222222222,2,36.4444444444444,1,14.4444444444444,5,1,-.462420275404939,.621486492482445,VCU
1992,4,4,2,4,4,2,3,4,4,3,4,3,1,1,3,2,3.05555555555556,28,4.77777777777778,2.44444444444444,64,2.44444444444444, ,3.45454545454545,1,2,2,2,2,3,5,2,5,1,2,2,2,6,5,5,1,7,1,3,2,2,2,2,4,3,2,2,1,1,1,1,3,3,2,7,3,10:41:37,2,2,12,3,5,4,5,5,4,5,5,5,5,5,7,5,6,2,4,4,15,6.83333333333333,2.45454545454545,4,4,4,4,3,1,1,1,1,1,3,2,4,2,2,3,2,2,2,3,1,4,5,4,3,3,2,3,5,5,5,3,4,3,3.76923076923077,1,2,1,1, ,4,2,4,2,3,1,4,4,1, ,2,8,1, , ,1,2,4,1, , , , , , , , , , ,7,7,7,7,7,6,7,8,2,2,3,4,4,4,1,1,2,4,3,2,2,4,5,4,4,5,4,4,4,2,4,4,2,2,2,2,2,2,4,2,4,2,2,2,4,4,2,2,4,5,4,3,2,2,3,4,2,2,3,2,3,4,2,2,2,1,2.61538461538462,2,5,5,1,1,1,2,2,3,1,5,5,1,5,36.1666666666667,36.1111111111111,2,36.1388888888889,1,10.5555555555556,5,1,-.154990129072611,-.523033186742652,VCU
1995,2,4,1,3,2,2,2,2,2,4,4,4,4,2,2,2,4.44444444444444,0,2.66666666666667,3.11111111111111,74,4.11111111111111, ,2.54545454545455,1,3,3,5,5,5,5,6,5,6,3,4,5,5,5,5,2,6,2,5,3,5,5,5,6,5,5,3,3,2,3,5,6,5,3,2,3,10:36:15,2.8,2,6,3,4,2,4,2,2,2,2,3,3,5,8,5,4,4,3,4,15,4.66666666666667,3.27272727272727,4,4,4,4,2,2,3,2,2,5,4,3,4,4,4,2,2,1,4,4,2,3,2,3,2,2,3,1,2,2,2,3,2,2,2.23076923076923,2,2,2,1, ,4,4,5, ,3,1,6,6,1, ,2,6,3,1,1,1,1, ,1, , , , , , , , , , ,6,4,4,4,5,5,5,7,3,2,4,4,4,2,4,2,2,4,4,4,2,2,2,4,5,4,4,4,3,5,4,2,2,4,4,2,4,4,3,4,2,4,1,4,2,2,2,2,2,2,2,4,4,4,4,3,5,4,4,1,4,4,3,2,2,1,2.92307692307692,2,3,4,2,3,2,3,4,3,3,3,3,3,3,36.1666666666667,36.28,2,36.2233333333333,1,8.88888888888889,5,1,.942974679257132,.907616412288719,VCU
1994,3,3,1,2,2,2,4,2,2,2,2,1,2,2,3,1,3.83333333333333,0,5,4.33333333333333,94,2.55555555555556, ,2.27272727272727,1,2,6,2,5,3,5,3,6,5,2,5,5,5,3,2,2,6,2,3,2,5,2,5,3,2,2,2,3,2,2,2,2,2,2,2,3,10:43:03,1.8,2,20,3,5,5,5,5,5,5,5,5,5,5,6,6,6,6,6,6,56,5.83333333333333,4.54545454545455,5,5,5,5,5,3,5,4,4,4,5,4,5,4,4,5,4,4,5,4,1,2,3,2,2,2,2,4,2,2,3,4,4,3,2.69230769230769,2,2,2,1, ,4,4,4,2,4,3,6,6,2,3,2,8,3,3,6,1,2,5,2,Psychology of Women,Imperial Plaza,GSUMC (CARITAS),Disco Sports,Nannying,6,5,2,7,2,6,6,6,5,6,6,6,11,4,4,4,4,5,4,3,3,4,4,3,1,3,4,4,2,5,5,5,4,4,4,4,4,2,3,2,3,4,4,4,3,4,3,4,4,4,4,2,2,4,3,4,2,3,2,3,3,3,4,4,2,4,4,3,3,2,4,2.61538461538462,3,3,4,2,2,2,2,3,2,2,3,5,2,4,36.1111111111111,35.8333333333333,2,35.9722222222222,1,13.3333333333333,5,1,.459870163592045,-.427656546807227,VCU
1994,3,4,1,4,2,3,3,4,4,3,2,2,2,4,4,4,2.88888888888889, ,2.66666666666667,3,68,2.66666666666667, ,3,1,2,3,4,2,4,2,2,2,4,2,6,2,2,2,4,5,2,2,2,2,2,2,5,2,3,4,6,2,2,2,3,2,3,2,2,2,11:14:28,3.2,2, ,3,3,4,2,2,3,3,2,2,3,3,3,1,2,5,6,6,34,4,2.90909090909091,1,4,3,4,4,1,3,4,4,2,2,3,3,3,3,2,3,3,4,3,2,4,4,2,3,3,4,3,3,3,3,2,2,3,3,2,2,2,1, ,4,4,5, ,8,3,8,8,2,4,2,8,3,1,8,1,2,4,2, , , , , , , , , , ,5,4,4,4,2,5,3,9,3,2,2,2,4,4,3,3,4,2,2,2,2,2,2,4,4,3,3,3,3,2,3,3,3,3,4,4,2,4,4,2,4,3,3,4,5,3,3,3,3,2,2,3,2,3,2,3,2,4,3,3,3,2,3,3,2,4,2.92307692307692,3,4,2,3,3,2,2,3,4,4,2,3,3,3,36.0555555555556,36.28,4,36.1677777777778,1,10.5555555555556,5,1,-.28674590607218,-.332279906871803,VCU
1985,2,2,2,2,2,2,3,2,2,2,2,3,2,2,2,1,2.05555555555556,0,3.88888888888889,2.22222222222222,94,2,2,2.09090909090909,1,2,2,2,2,2,2,2,2,2,2,2,2,2,2,2,3,2,2,2,2,2,2,2,2,2,2,2,2,2,2,1,2,2,2,2,3,10:20:51,2,2,0,3,4,4,4,4,4,4,4,4,3,5,8,6,6,5,6,7,26,3.83333333333333,1.90909090909091,3,2,2,3,2,1,1,1,2,2,2,2,2,2,3,2,2,2,2,3,2,4,4,5,4,3,3,3,4,5,4,4,4,4,3.92307692307692,2,1,3,1, ,4,4,5, ,5,2,6,6,1, ,2,5,3,1,6,3,2,3,1, , , , , , , , , , ,4,4,4,4,4,3,3,8,3,1,1,1,5,5,2,3,5,1,1,1,3,3,4,2,4,4,4,4,4,4,4,4,2,2,3,5,1,2,4,1,4,2,4,4,4,3,3,2,4,2,4,3,2,2,3,4,2,2,4,2,4,3,4,3,2,2,2.30769230769231,3,2,4,3,2,2,2,2,2,2,2,4,2,2,36,36.5,2,36.25,1,13.3333333333333,5,1,-.945524791070026,-.904539746484351,VCU
1995,1,1,1,1,1,1,2,1,1,1,1,2,1,1,3,1,4.27777777777778,0,4.22222222222222,3.88888888888889,94,1.66666666666667, ,1.09090909090909,1,4,4,4,6,7,4,4,5,4,2,4,4,5,5,5,4,5,1,2,2,2,2,2,1,2,1,1,2,2,2,1,1,1,2,1,3,10:17:56,1.6,2,3,3,5,3,4,4,4,5,5,4,4,5,8,7,6,6,4,5,35,6.66666666666667,3.90909090909091,4,4,5,4,5,2,5,2,5,2,5,4,5,2,5,2,4,5,3,5,1,2,4,4,2,5,3,3,2,3,4,3,4,2,3.15384615384615,2,2,2,1, ,4,4,4,3,2,2,8,8,1, ,2,8,3,1,5,1,1, ,2,Delta Epsilon Mu,Alpha Gamma Delta, , , ,15,3, , , ,7,7,5,7,7,7,5,8,3,4,4,2,5,4,4,5,5,4,2,1,4,5,4,3,5,5,5,5,3,5,3,3,1,2,3,2,4,4,2,1,4,1,3,5,3,4,2,2,3,3,3,3,4,2,1,5,4,4,4,1,5,5,4,5,5,5,2.53846153846154,2,3,4,2,3,1,2,2,3,3,4,5,2,2,35.9444444444444,35.8888888888889,2,35.9166666666667,1,13.3333333333333,5,1,.811218902257563,-1.19066966629063,VCU
 ,5,5,1,1,4,3,4,5,4,4,5,1,2,1,1,1,2.22222222222222,0,3.88888888888889,4.11111111111111,91,1.33333333333333, ,3.72727272727273, ,4,1,2,2,1,5,1,1,2,1,7,1,2,2,1,5,1,1,1,1,1,1,1,1,1,1,1,1,1,1,1,1,2,4,1,3,11:04:59,1.2, ,0,3,4,4,4,4,4,4,3,4,4,2,5,7,5,5,5,5,18,5.33333333333333,3.90909090909091,5,5,4,4,5,3,4,1,4,3,5,5,5,2,5,4,4,3,4,5, ,2,5,2,4,4,3,3,2,5,4,5,3,3,3.46153846153846, , ,2,1, ,4,4,5, ,3,3,3,3,2,2,2,1,3,3,1,1,1, ,1, , , , , , , , , , ,3,6,6,6,5,6,6,8,1,2,5,4,4,5,4,4,2,2,1,1,2,5,4,5,4,5,5,5,5,4,5,5,1,1,1,4,3,2,2,2,1,1,2,3,1,4,1,2,4,4,1,1,1,2,5,4,5,5,2,1,4,4,4,3,2,2,2.76923076923077,3,3,3,4,4,3,2,3,3,2,2,2,2,2,35.9, , ,35.9,1,14.4444444444444,5,1,-.813769014070457,-1.4767995860969,VCU
1995,1,1,1,1,3,1,1,1,1,1,1,4,5,5,1,5,4.61111111111111,4,4,3.33333333333333,85,5.05555555555556, ,1.18181818181818,1,7,4,3,7,2,4,1,7,7,5,7,4,7,1,7,2,7,1,4,4,7,4,4,5,5,4,6,6,4,7,5,7,6,7,4,2,10:55:46,4,2,1,3,4,4,4,4,4,4,4,4,4,3,4,4,2,2,3,2,47,5.66666666666667,2,4,3,4,4,1,1,1,1,1,1,1,3,4,4,4,2,2,3,4,4,2,1,4,2,2,4,1,3,3,1,4,4,3,3,2.69230769230769,2,2,2,1, ,4,4,5, ,2,2,8,8,1, ,2,7,3,1,8,1,2,6,2,Zeta Tau Alpha,Be the Match,College Republicans, , ,20,5,4, , ,4,6,6,6,6,6,6,8,4,3,5,5,1,2,4,4,2,5,1,5,1,1,4,5,5,1,3,5,5,4,1,1,1,1,1,1,5,5,1,4,3,3,1,1,3,2,2,3,4,1,5,2,1,5,5,5,1,4,1,4,4,4,1,1,3,5,3.07692307692308,2,2,4,4,3,3,3,3,3,4,3,4,3,3,35.8888888888889,36.5,2,36.1944444444444,1,12.7777777777778,5,1,1.0747304562567,1.71831785173983,VCU
1996,3,2,1,4,2,1,2,2,2,2,2,3,4,2,3,3,3,0,4,3.22222222222222,64,1.83333333333333, ,2.09090909090909,1,3,2,2,2,4,2,2,2,1,4,2,2,4,7,5,3,5,2,2,2,2,1,1,2,1,2,2,2,2,2,2,2,2,2,2,2,10:50:50,3,2,6,3,5,4,4,5,4,3,4,3,4,5,7,5,3,6,2,2,24,3.83333333333333,3.54545454545455,4,4,4,3,4,4,2,3,3,4,4,2,4,1,4,4,4,2,4,4,1,4,1,4,3,3,2,1,2,4,3,4,4,4,3,2,2,2,1, ,2,2,5, ,2,1,8,8,1, ,2,8,1, , ,3,1, ,2,Virginia esports association,Marval rpg group, , , ,4,5, , , ,5,5,3,4,3,3,2,6,2,4,4,5,4,2,4,3,3,5,4,2,2,4,4,5,4,5,4,4,3,3,4,3,2,4,2,2,4,4,3,4,3,4,2,4,4,3,4,2,2,4,2,3,3,2,3,4,4,4,3,3,2,3,4,3,2,2,2.53846153846154,2,3,4,2,2,2,2,3,2,2,3,4,2,4,35.8,36.2,2,36,1,10.5555555555556,5,1,-.198908721405801,-1.04760470638749,VCU
1993,3,4,2,4,2,2,4,2,4,3,2,2,3,2,3,2,3.16666666666667,0,4.77777777777778,3.55555555555556,81,4.38888888888889, ,2.90909090909091,1,2,1,3,1,1,5,4,5,3,5,1,1,2,1,5,4,6,7,6,5,7,3,7,6,2,3,3,3,6,5,2,2,4,5,4,6,10:59:52,2.4,2,4,3,4,5,4,5,5,5,5,5,5,4,7,4,5,4,3,3,11,6.16666666666667,2.63636363636364,4,3,4,3,2,1,1,2,3,2,4,4,4,3,5,4,2,4,2,4,1,2,3,1,2,3,1,2,1,2,3,2,3,3,2.15384615384615,2,2,2,1, ,4,2,5, ,2,1,4,6,1, ,2,6,1, , ,1,1, ,1, , , , , , , , , , ,6,6,7,6,6,6,6,6,2,3,2,4,4,1,1,2,4,4,3,2,4,4,4,3,4,4,5,4,4,4,2,3,4,2,1,3,2,2,4,2,2,4,3,4,5,5,3,1,2,3,4,3,3,4,5,5,5,3,2,4,4,4,3,3,2,5,3.53846153846154,3,3,4,3,2,4,4,4,3,4,4,3,3,5,35.7222222222222,36.3888888888889,2,36.0555555555556,1,14.4444444444444,5,1,-.0671529444062317,1.14605801212728,VCU
1993,2,3,2,2,2,3,2,2,3,3,2,2,3,2,3,2,3.27777777777778,0,3.55555555555556,2.55555555555556,94,3.66666666666667, ,2.36363636363636,1,4,3,2,5,2,2,4,3,3,3,3,3,3,4,3,4,6,2,5,3,5,3,4,4,2,4,4,3,2,4,3,5,4,4,3,4,11:43:49,2.4,2,2,3,4,4,4,4,4,4,2,3,3,4,6,4,3,3,4,3,20,5.16666666666667,3,4,4,4,4,3,2,2,2,2,2,4,2,3,2,3,2,2,4,3,2,1,4,2,3,4,4,4,3,3,2,4,5,3,4,3.46153846153846,1,2,2,1, ,4,2,4,1,4,3,6,6,1, ,2,3,3,1,5,1,1, ,1, , , , , , , , , , ,6,6,4,5,5,5,5,8,2,2,4,4,2,1,3,2,3,5,4,3,3,2,4,4,3,5,3,3,3,3,4,2,2,2,2,1,4,5,2,5,3,2,2,4,4,3,2,2,4,4,2,4,4,4,4,3,4,4,2,3,4,3,2,2,2,3,2.46153846153846,3,2,4,2,2,2,3,2,2,3,3,4,2,2,35.6111111111111,36.0555555555556,2,35.8333333333333,1,13.3333333333333,5,1,.0206842402601478,.52610985254702,VCU
1993,4,5,4,4,2,4,3,4,4,3,2,2,4,1,2,2,1.88888888888889,0,4.44444444444444,2.44444444444444,87,2.05555555555556, ,3.54545454545455,1,1,1,1,1,2,1,2,2,2,1,6,1,1,1,2,5,2,2,2,2,2,1,1,1,2,1,6,2,2,2,1,1,6,2,1,2,10:38:06,2.2,2,4,3,5,5,5,5,5,5,2,4,4,5,8,6,7,7,5,1,18,4.83333333333333,1.63636363636364,1,1,2,4,2,1,1,1,1,2,2,3,4,2,2,2,2,1,2,4,1,3,4,4,3,3,2,3,2,2,3,3,5,3,3.07692307692308,2,2,1,1, ,2,2,4,1,2,2,4,2,1, ,2,4,3,1,8,1,1, ,1, , , , , , , , , , ,4,6,5,4,5,5,5,8,1,5,4,5,4,1,2,3,3,5,2,1,3,4,5,4,2,5,3,4,4,3,4,4,4,4,4,3,3,5,4,4,2,2,2,3,5,2,5,2,3,3,4,2,3,4,4,4,4,4,3,5,4,3,2,3,1,4,2.84615384615385,4,3,3,2,2,2,2,4,4,2,3,5,1,5,35.6111111111111,36.1111111111111,2,35.8611111111111,1,15,5,1,-1.07728056806959,-.856851426516639,VCU
1996,2,2,3,5,3,2,3,5,3,3,2,2,1,2,2,4,4,3,3.22222222222222,2.55555555555556,68,4,0,3,2,4,4,4,4,4,4,4,4,4,4,4,4,4,4,4,4,4,4,4,4,4,4,4,4,4,4,4,4,4,4,4,4,4,4,4,4,20:01:40,2.2,2,3,3,3,4,4,3,2,2,3,4,4,1,1,4,1,1,1,1,5,4.33333333333333,2.09090909090909,2,1,2,2,3,3,1,2,1,3,3,4,3,4,2,1,3,3,1,2,2,3,3,3,3,3,3,3,3,3,3,3,3,3,3,1,1,2,1, ,4,1,5, ,3,1,1,1,1, ,1, ,1, , ,1,1, ,1, , , , , , , , , , ,4,4,4,3,6,5,1,5,0,3,3,2,1,3,2,3,3,3,2,2,3,3,2,3,4,4,3,3,4,3,3,4,1,1,3,1,3,2,1,4,3,3,2,3,4,2,3,1,2,2,4,5,4,5,2,4,3,2,3,3,4,1,2,2,3,4,3,3,3,3,3,3,3,3,3,3,3,3,3,3,3,35.5555555555556,36.6666666666667,2,36.1111111111111,1,8.88888888888889,5,1,.591625940591614,.812239772353295,VCU
1994,3,2,2,3,2,2,4,2,2,2,2,2,2,3,2,4,4.55555555555556,2,3.77777777777778,3.44444444444444,57,2, ,2.36363636363636,2,7,5,5,5,6,5,6,2,6,2,7,5,4,4,3,5,4,1,2,2,2,1,2,2,1,2,2,3,2,3,2,2,2,2,1,3,11:23:50,2.6,2,0,3,4,5,4,4,4,4,3,3,3,3,3,4,3,3,3,2,16,5.5,3.36363636363636,3,4,4,4,4,2,2,3,3,4,4,4,4,3,4,3,3,3,3,4,1,3,4,3,3,3,5,3,4,2,4,3,3,4,3.38461538461538,2,2,2,1, ,4,4,4,1,8,4,3,3,2,1,2,5,1, , ,2,1, ,1, , , , , , , , , , ,6,5,4,4,7,7,6,8,2,3,3,2,4,4,4,4,4,3,2,2,3,4,4,5,2,4,3,3,3,2,2,2,2,2,2,4,2,4,4,2,5,3,2,5,4,4,2,2,3,4,3,3,3,1,4,4,4,3,2,1,3,4,1,3,1,4,3.30769230769231,3,4,5,2,4,3,3,4,4,2,4,4,2,3,35.5555555555556,36.1666666666667,2,35.8611111111111,1,17.2222222222222,5,1,1.03081186392351,-.904539746484351,VCU
1994,4,4,2,3,4,4,4,4,2,3,3,2,3,2,3,2,4.38888888888889,0,4,4,74,3.55555555555556, ,3.36363636363636,1,5,2,5,6,6,6,5,3,5,5,4,4,4,2,2,5,5,5,6,4,2,2,2,3,2,4,5,4,3,2,4,2,5,6,2,6,10:48:59,2.4,2,17,3,4,4,4,4,4,4,4,4,4,5,6,4,5,6,6,6,29,4.5,4,4,4,4,4,4,4,4,4,4,4,4,4,4,4,4,4,4,4,4,4,1,3,3,3,5,3,5,3,3,3,3,5,3,3,3.46153846153846,2,2,2,1, ,4,4,4,2,5,2,4,2,2,1,2,8,3,8,8,1,1, ,1, , , , , , , , , , ,7,4,4,4,4,4,4,9,2,4,4,3,3,2,2,3,4,3,3,1,3,4,3,4,4,4,2,4,3,4,3,3,2,2,3,1,4,4,4,3,2,4,2,4,4,3,1,4,4,5,3,4,2,4,3,4,4,4,3,4,4,4,2,2,3,2,3,3,3,3,3,3,3,3,3,3,3,3,4,3,3,35.5555555555556,36.1111111111111,4,35.8333333333333,1,16.6666666666667,5,1,.899056086923942,.430733212611596,VCU
1995,1,2,1,2,2,4,2,2,3,1,3,2,1,2,4,2,3.05555555555556,0,4.11111111111111,2.66666666666667,94,3.27777777777778, ,2.09090909090909,1,3,3,2,3,3,3,3,3,3,3,3,3,2,3,3,3,6,3,5,3,5,3,3,3,2,3,3,3,3,3,3,2,3,6,3,3,9:44:08,2.2,2,14,3,5,5,5,5,5,3,3,3,3,4,5,3,4,4,4,4,43,4.16666666666667,2.36363636363636,2,2,4,2,2,2,2,2,4,2,2,2,4,2,2,4,4,2,2,2,2,2,3,5,2,4,4,4,1,2,4,2,4,5,3.23076923076923,2,2,2,1, ,4,4,5, ,4,4,8,8,2,8,2,8,1, , ,4,1, ,2,Raas Team (Dance),Swadhyay,Math Major Group, , ,16,5,2, , ,5,4,4,4,4,4,4,7,4,2,2,2,4,3,4,4,4,3,3,2,2,4,4,4,4,4,4,4,4,4,4,4,1,4,3,4,4,4,4,2,4,4,1,4,5,4,4,2,4,4,4,2,2,2,2,4,4,2,2,2,4,2,2,2,2,2,2.84615384615385,3,3,5,2,2,2,2,3,1,3,4,5,3,4,35.3888888888889,35.9444444444444,2,35.6666666666667,1,13.3333333333333,5,1,-.154990129072611,.192291612773034,VCU
1997,2,4,4,3,4,4,4,4,2,4,2,3,3,2,4,3,5.61111111111111,0,3.77777777777778,3.77777777777778,74,5.72222222222222,1,3.36363636363636,1,6,6,6,6,6,7,6,6,2,3,5,6,6,6,6,6,6,6,6,6,6,6,6,6,6,6,6,6,5,6,6,6,6,6,2,6,17:52:27,3,2,0,3,4,4,4,4,4,3,3,4,4,3,3,2,2,2,2,2,11,1.83333333333333,4.09090909090909,5,4,5,5,4,3,4,4,4,3,4,2,4,4,4,4,4,4,4,4,2,3,2,1,2,2,1,2,1,1,4,3,2,2,2,2,1,2,1, ,4,4,5, ,2,2,3,3,1, ,2,4,1, , ,1,1, ,1, , , , , , , , , , ,1,2,2,2,2,2,2,6,1,2,2,2,5,4,2,4,2,4,2,2,2,2,2,4,4,4,4,4,2,3,4,4,2,4,2,4,4,4,4,2,2,2,2,2,2,2,2,2,2,4,2,2,2,2,4,2,2,2,2,2,2,2,4,2,2,2,3.07692307692308,3,3,5,2,3,2,4,3,2,3,4,4,2,4,35.2777777777778,35.3888888888889,2,35.3333333333333,1,16.6666666666667,5,1,1.86526511825412,2.29057769135238,VCU
1995,2,2,4,3,2,4,2,3,4,2,2,2,3,2,3,2,2.83333333333333,0,3.55555555555556,2.11111111111111,68,2.88888888888889, ,2.72727272727273,1,2,3,3,3,4,2,1,5,2,3,2,3,2,2,5,2,6,1,3,2,3,3,2,4,5,3,2,2,2,2,2,5,3,3,3,3,11:20:41,2.4,2,0,3,4,4,3,4,4,3,3,4,3,3,3,3,2,2,3,4,13,4,2.18181818181818,4,2,3,1,2,1,3,2,2,2,2,2,2,2,2,2,2,2,3,2,2,4,4,3,2,3,3,4,4,3,5,5,4,5,3.76923076923077,2,2,2,1, ,4,2,5, ,3,3,3,3,1, ,2,6,3,1,2,1,1, ,1, , , , , , , , , , ,4,4,5,4,4,3,4,7,2,2,2,3,4,4,2,3,4,4,2,1,2,2,4,3,3,4,2,4,3,3,4,3,2,3,3,3,2,2,3,2,3,3,2,4,4,4,4,2,3,3,2,3,2,1,4,4,3,3,3,3,4,4,4,4,2,2,2.30769230769231,2,2,3,1,1,1,3,2,4,3,3,5,2,3,35.2777777777778,36.6111111111111,2,35.9444444444444,1,10.5555555555556,5,1,-.33066449840537,-.141526627000953,VCU
1992,4,5,1,3,1,2,4,2,2,4,2,1,1,2,1,1,2.72222222222222,17,4.22222222222222,3.22222222222222,91,3.44444444444444, ,2.72727272727273,1,2,2,1,2,1,5,5,3,2,1,7,2,2,1,6,1,5,1,6,3,1,6,6,7,7,4,2,1,3,2,1,6,2,2,1,2,11:07:24,1.2,2,2,3,5,2,4,4,4,5,5,5,4,2,2,1,1,1,2,1,16,6.83333333333333,3.63636363636364,4,4,4,5,4,3,3,3,4,2,4,4,5,3,5,1,2,4,1,4,1,2,2,1,1,3,1,3,1,1,4,2,1,2,1.84615384615385,1,2,4,1, ,4,3,5, ,1, ,8,8,1, ,2,5,2,1,1,2,1, ,1, , , , , , , , , , ,7,7,7,7,7,6,7,6,2,1,4,5,5,1,4,3,3,5,4,1,4,3,1,1,4,4,3,5,1,3,4,1,2,5,4,4,4,4,4,5,3,2,1,2,5,2,4,5,2,2,5,1,4,2,4,5,2,5,4,4,5,5,2,3,3,3,2.69230769230769,3,3,4,3,3,2,2,3,3,3,2,3,1,3,35.1666666666667,36.7222222222222,2,35.9444444444444,1,14.4444444444444,5,1,-.418501683071749,.335356572676171,VCU
1996,4,4,4,4,4,4,4,2,4,4,2,2,2,3,4,3,3.88888888888889,2,4.11111111111111,2.88888888888889,81,4, ,3.63636363636364,1,3,4,4,5,3,6,3,5,5,3,5,3,4,3,3,3,5,3,3,4,5,4,4,4,5,5,5,3,3,3,3,5,3,5,5,3,10:38:44,2.8,2,4,2,5,4,4,4,5,4,4,4,3,3,4,3,3,2,4,4,14,5.16666666666667,3.54545454545455,4,4,4,4,4,2,4,2,4,3,4,2,4,4,4,2,2,4,2,2,2,2,3,3,3,4,4,4,2,3,5,4,5,3,3.46153846153846,2,2,2,1, ,4,4,5, ,4,2,4,4,1, ,2,8,1, , ,2,1, ,2,Nurse Shadowing, , , , ,1, , , , ,6,5,4,6,5,5,4,6,2,1,4,2,4,5,3,3,4,5,2,1,3,2,4,4,4,3,4,4,4,4,3,3,3,2,3,2,3,3,4,2,3,2,2,5,4,4,2,2,4,3,4,4,3,2,4,4,2,2,4,4,4,3,3,4,2,2,2.92307692307692,3,3,4,2,3,2,3,3,3,3,3,4,2,4,36.8888888888889,36.7222222222222,2,36.8055555555556,1,14.4444444444444,5,1,.503788755925235,.812239772353295,VCU
1991,4,5,3,3,4,4,4,2,4,4,5,3,4,3,2,3,6,0,3.44444444444444,4.11111111111111,91,4.83333333333333, ,3.81818181818182,1,6,7,7,7,4,7,7,6,7,7,7,3,5,5,7,5,7,4,6,4,6,5,6,4,5,5,2,6,4,6,4,4,5,6,3,6,10:04:25,3,2,15,2,3,3,3,3,3,4,4,4,4,3,5,3,2,4,5,1,36,4.33333333333333,3.72727272727273,4,5,3,5,4,3,3,3,4,3,4,4,4,4,5,5,4,2,5,4,2,2,2,3,2,4,3,4,2,1,3,4,2,3,2.69230769230769,1,2,2,1, ,4,4,5, ,3,3,7,3,1, ,2,8,2,8,8,2,1, ,2,The Underground Crew, , , , ,7, , , , ,3,5,5,5,4,4,6,7,2,4,4,5,4,3,3,2,3,5,4,2,2,4,4,5,4,5,5,3,2,3,3,2,4,5,2,2,2,4,3,4,3,2,4,3,4,3,2,3,5,5,3,4,4,3,3,4,4,3,4,3,4,3,3,3,2,3,3.84615384615385,5,5,5,3,4,2,3,5,3,3,4,5,3,5,36.7777777777778,36.8333333333333,2,36.8055555555556,1,14.4444444444444,5,1,2.17269526458644,1.52756457186898,VCU
1994,2,2,2,2,2,2,3,2,2,3,2,1,2,1,2,1,2.61111111111111,0,5,3.22222222222222,82,1.27777777777778, ,2.18181818181818,1,2,1,2,5,5,5,2,5,1,2,1,1,1,2,4,1,6,1,1,1,2,1,1,1,2,1,2,2,1,1,1,2,1,1,1,1,10:56:06,1.4,2,3,2,5,5,5,5,5,5,5,5,5,5,8,7,6,6,2,4,17,6.5,2.72727272727273,2,2,2,4,2,4,4,2,4,2,2,2,4,4,2,4,4,4,3,2,2,2,1,5,3,4,1,3,1,1,5,2,2,3,2.53846153846154,2,2,2,1, ,4,2,5, ,5,4,5,5,2,1,2,6,3,1,1,2,1, ,1, , , , , , , , , , ,7,7,6,5,7,7,7,8,3,2,5,5,4,3,1,1,2,5,4,2,2,4,4,4,4,4,4,5,4,4,4,4,1,1,1,1,5,5,4,5,2,4,1,4,4,4,3,2,4,5,2,3,1,2,5,5,5,5,2,4,1,1,1,4,3,1,3.76923076923077,4,4,4,3,3,3,5,4,3,5,5,5,2,4,36.6666666666667,36.7777777777778,2,36.7222222222222,1,11.1111111111111,5,1,-.506338867738129,-1.52448790606461,VCU
1992,2,1,2,1,1,2,3,1,2,3,1,1,2,3,2,2,4.38888888888889,0,3.88888888888889,3.66666666666667,81,4.11111111111111, ,1.72727272727273,1,4,4,4,4,4,6,4,4,4,4,6,4,4,4,4,4,7,4,4,4,4,4,5,4,5,4,4,2,4,4,4,6,4,4,4,4,12:07:42,2,2,2.32,2,5,5,3,4,4,4,3,4,3,4,2,5,1,2,4,2,21,4.33333333333333,3.36363636363636,4,3,4,5,3,2,4,2,5,1,4,2,5,3,4,4,3,4,5,3,2,3,3,5,5,4,1,4,2,1,3,1,5,3,3.07692307692308,2,2,2,1, ,4,4,5, ,7,4,6,4,2,1,2,5,3,1,5,1,1, ,1, , , , , , , , , , ,2,5,6,5,4,4,5,8,2,1,5,4,4,4,3,4,5,4,2,1,2,3,2,3,4,4,5,3,5,2,3,5,2,1,2,2,4,5,5,4,5,5,3,3,4,4,2,1,4,3,4,3,2,2,2,3,3,4,3,4,4,4,3,2,2,2,3.07692307692308,4,4,5,2,3,2,3,2,2,3,4,5,3,3,36.6111111111111,36.3333333333333,2,36.4722222222222,1,14.4444444444444,5,1,.899056086923942,.907616412288719,VCU
1978,2,3,1,2,2,2,3,2,1,1,1,3,3,1,2,2,2.61111111111111,0,4.66666666666667,3.33333333333333,91,1.66666666666667, ,1.81818181818182,1,2,2,3,2,2,3,2,3,3,3,2,2,3,3,3,2,5,2,1,2,2,1,2,1,2,2,2,2,1,2,2,1,2,2,1,2,11:24:35,2.2,2,6,2,5,4,5,4,4,5,5,5,5,5,5,6,4,4,4,3,46,3.66666666666667,2.81818181818182,4,4,4,4,4,1,1,1,1,3,4,3,4,3,4,4,2,3,3,4,2,1,3,2,3,3,2,3,2,3,4,5,3,3,2.84615384615385,1,2,4,1, ,4,4,5, ,3,3,8,8,1, ,2,8,3,1,6,1,2,8,2,Alcoholics Anonymous,IATSE Local 285, , , ,7,7, , , ,4,4,4,4,4,2,2,8,4,5,5,5,3,1,4,3,1,5,5,3,2,2,5,5,4,5,5,5,4,4,5,5,1,2,2,1,4,5,2,5,2,4,4,4,5,4,4,1,4,3,4,2,4,5,3,4,3,5,3,4,3,4,3,2,2,4,2.38461538461538,2,3,4,2,2,2,2,2,2,3,3,4,2,2,36.3333333333333,36.5,2,36.4166666666667,1,14.4444444444444,5,1,-.506338867738129,-1.19066966629063,VCU
1992,4,3,4,3,4,4,2,4,3,3,2,2,2,2,5,3,3.61111111111111,0,3.77777777777778,2.11111111111111,74,3.83333333333333, ,3.27272727272727,1,2,3,2,5,5,1,2,5,3,3,2,5,6,3,3,4,7,4,4,3,3,2,4,5,3,5,6,3,5,2,3,3,5,5,2,6,9:31:32,2.8,2,0,2,4,5,3,5,5,2,2,3,5,4,5,4,1,3,5,5,15,3.5,2,2,2,2,2,2,2,2,2,2,2,2,2,3,2,2,2,2,2,2,2,2,2,4,3,2,3,2,3,2,2,4,2,3,4,2.76923076923077,2,2,2,1, ,4,4,5, ,2,2,3,3,1, ,1, ,3,1,3,1,1, ,1, , , , , , , , , , ,5,3,4,3,3,3,3,6,1,3,3,2,4,2,2,4,4,3,3,2,2,2,4,4,4,4,2,4,2,4,2,2,2,2,2,4,2,2,2,4,2,4,4,2,5,4,4,4,4,4,4,4,4,4,4,4,4,4,4,4,4,4,4,4,4,4,3.30769230769231,2,4,2,4,2,3,2,5,4,4,4,5,2,5,36.28,36.28,2,36.28,1,16.6666666666667,5,1,.284195794259286,.669174812450158,VCU
1993,2,2,2,3,1,3,2,1,3,2,2,2,2,5,4,4,6.27777777777778,0,1.22222222222222,3.66666666666667,81,4.44444444444444,2,2.09090909090909,1,7,6,7,7,7,7,7,6,7,6,7,5,6,5,6,7,7,3,6,5,6,4,6,3,1,5,5,5,5,6,3,2,5,5,2,6,10:35:31,3.4,2,12,2,1,1,2,1,1,1,2,1,1,2,2,2,2,2,3,2,6,5.66666666666667,2.63636363636364,1,3,2,2,1,3,4,4,2,4,3,4,5,2,5,2,2,4,5,4,2,1,1,2,2,2,3,3,2,4,4,2,1,3,2.30769230769231,1,1,1,1, ,2,2,5, ,1, ,2,2,1, ,2,1,1, , ,1,1, ,1, , , , , , , , , , ,5,7,7,7,4,4,5,5,0,4,4,5,3,2,4,4,2,5,3,2,2,5,4,5,2,5,5,3,1,1,2,1,2,4,3,1,4,4,2,5,2,4,4,2,4,4,2,2,2,4,2,3,2,2,4,4,4,4,2,5,2,2,1,2,1,4,3.46153846153846,4,4,5,2,3,3,4,5,3,3,3,5,2,4,36.2777777777778,36.4444444444444,2,36.3611111111111,1,14.4444444444444,5,1,2.39228822625239,1.19374633209499,VCU
1975,2,2,1,2,1,2,2,2,5,3,3,1,2,2,2,2,2.27777777777778,0,4.11111111111111,3.22222222222222,91,3.94444444444444, ,2.27272727272727,1,2,2,3,2,2,1,2,5,2,2,1,1,4,1,5,2,2,2,5,4,7,4,6,4,5,3,3,3,3,3,2,4,4,7,2,2,10:00:50,1.8,2,14,2,4,4,5,5,3,4,4,4,4,2,4,1,3,2,2,2,25,4.83333333333333,2.90909090909091,4,4,3,4,3,2,2,2,2,2,4,3,4,2,4,2,2,4,4,4,1,2,2,3,2,2,1,2,3,3,5,2,5,2,2.61538461538462,1,2,1,1, ,4,2,2,1,5,4,2,2,1, ,2,1,3,8,6,1,1, ,1, , , , , , , , , , ,5,6,6,5,4,3,4,8,1,4,4,5,4,2,3,2,2,5,4,2,1,1,5,5,2,3,4,4,3,3,4,4,2,2,3,1,5,5,5,3,2,4,2,4,5,5,2,1,4,5,2,4,1,4,3,4,2,4,2,4,3,2,4,3,2,1,3,3,4,3,2,3,2,4,3,3,2,3,5,4,3,36.2777777777778,36.2222222222222,2,36.25,1,14.4444444444444,5,1,-.769850421737267,.764551452385583,VCU
1993,1,1,3,1,1,4,1,2,1,2,1,1,1,1,2,1,3.5,0,2.77777777777778,3.44444444444444,64,2.61111111111111,3,1.63636363636364,1,3,2,3,6,3,3,2,6,2,4,3,5,6,2,4,2,5,2,2,2,3,2,2,2,2,2,4,2,3,2,2,2,5,2,2,6,9:45:55,1.2,2,6,2,5,2,5,4,1,2,2,2,2,2,2,2,2,2,2,2,8,2,3.54545454545455,3,4,4,4,4,3,4,4,2,3,4,4,4,4,4,2,3,2,4,4,2,3,4,4,3,2,2,2,4,3,3,2,4,2,2.92307692307692,2,1,2,1, ,4,3,5, ,1, ,3,3,1, ,2,3,1, , ,1,1, ,1, , , , , , , , , , ,1,3,2,2,2,2,2,5,0,2,4,4,4,2,2,4,4,5,4,2,2,5,5,5,4,5,3,3,1,4,3,2,3,4,3,2,4,5,5,5,3,5,4,5,4,5,2,2,4,5,4,5,3,5,5,5,4,4,4,1,5,5,1,1,5,3,3.23076923076923,3,4,5,3,3,3,3,4,3,3,3,5,2,3,36.2777777777778,35.8888888888889,2,36.0833333333333,1,10.5555555555556,5,1,.196358609592907,-.379968226839515,VCU
1995,4,5,4,5,3,4,4,4,4,4,3,1,1,2,2,3,5,0,3.22222222222222,4.11111111111111,68,5.16666666666667, ,4,1,6,6,6,6,4,6,5,6,6,5,5,2,4,6,7,2,6,2,5,5,7,6,6,5,6,6,2,6,4,6,3,6,5,6,6,3,11:43:02,1.8,2,0,2,3,3,4,4,3,4,2,3,3,4,4,4,4,3,5,2,8,5,3.27272727272727,4,4,4,4,2,2,2,2,4,4,4,4,4,4,4,4,4,4,5,4,2,1,1,2,2,4,1,1,1,1,2,1,3,1,1.61538461538462,2,2,2,1, ,4,1,5, ,2,1,3,2,1, ,2,5,1, , ,1,2,2,1, , , , , , , , , , ,6,3,3,4,7,7,7,7,1,1,3,4,5,3,4,2,4,4,2,1,2,2,4,2,3,1,2,3,3,2,3,2,3,4,3,3,1,2,3,1,4,4,4,4,3,3,5,1,2,4,4,2,2,4,3,4,2,2,4,4,4,3,4,3,2,2,3.38461538461538,4,3,3,4,4,3,4,3,3,4,3,5,3,3,36.2222222222222,36.3888888888889,2,36.3055555555556,1,8.88888888888889,5,1,1.38216060258903,1.81369449167526,VCU
1993,2,4,2,2,2,2,2,2,2,2,2,2,1,1,4,1,2.38888888888889,0,4,3,94,2.72222222222222, ,2.18181818181818,1,2,2,1,3,2,2,2,4,7,1,1,2,5,4,1,1,2,1,5,2,5,3,3,2,2,6,2,1,1,1,2,1,5,5,1,2,13:34:39,1.8,2,0,2,5,5,4,5,5,4,2,4,2,4,4,5,1,3,3,2,27,4.66666666666667,3,4,4,4,4,4,2,2,2,2,1,4,2,4,2,4,2,4,4,1,4,1,2,3,5,2,3,1,2,1,2,3,2,4,3,2.53846153846154,1,2,1,1, ,4,2,5, ,3,1,8,8,1, ,2,8,3,1,5,2,1, ,2,fraternity, , , , ,20, , , , ,5,5,6,5,4,3,3,7,2,4,4,4,4,2,2,4,4,5,2,1,4,3,3,2,5,4,3,4,4,5,4,4,3,2,4,2,3,4,2,2,4,4,4,4,5,2,4,4,2,3,5,2,2,4,2,4,4,4,4,2,4,4,4,3,4,4,2.92307692307692,2,4,5,3,2,2,2,3,3,4,2,5,4,2,36.1666666666667,35.8888888888889,2,36.0277777777778,1,13.3333333333333,5,1,-.682013237070888,-.28459158690409,VCU
1979,2,2,3,2,2,2,2,2,2,2,2,2,2,3,3,2,2.5,0,3.88888888888889,2.66666666666667,91,2.38888888888889, ,2.09090909090909,1,5,2,2,2,3,3,5,2,2,2,2,1,2,2,2,2,4,2,2,6,2,2,2,1,2,2,2,2,2,3,2,2,2,5,2,2,10:44:28,2.4,2,0,2,4,4,4,4,4,4,3,4,4,2,2,1,1,1,1,1,47,4,2.81818181818182,3,3,3,3,3,3,1,3,3,3,3,4,4,2,3,2,2,2,2,3,1,4,4,3,3,2,2,4,4,4,4,4,3,3,3.38461538461538,1,2,4,1, ,4,4,5, ,1, ,7,3,1, ,2,8,3,1,8,1,2,8,2,Special Olympics,Italian Club,Military Student Veterans Assoc, , ,7,7,7, , ,6,5,3,4,3,3,4,7,3,4,2,4,4,2,2,2,4,4,2,2,3,3,4,5,4,4,2,4,2,2,2,2,2,2,2,4,3,2,2,4,2,3,4,4,5,5,4,2,3,4,2,2,2,4,3,4,2,3,1,2,4,3,2,3,2,2,2.46153846153846,4,3,2,3,3,2,2,2,2,2,2,3,3,2,36.0555555555556,36.2777777777778,2,36.1666666666667,1,14.4444444444444,5,1,-.594176052404508,-.570721506710364,VCU
1992,2,4,1,3,2,1,2,2,2,1,1,2,2,2,3,3,4.83333333333333,6,3,3,88,3.77777777777778, ,1.90909090909091,1,4,4,5,6,6,6,2,6,5,4,5,5,5,6,3,6,5,4,5,3,4,2,2,3,3,5,5,3,4,6,4,3,3,4,4,5,9:34:57,2.4,2,6,2,4,3,4,4,4,2,2,2,2,3,3,3,2,2,2,1,14,4.16666666666667,2.72727272727273,2,4,2,3,2,1,3,4,4,3,2,3,2,4,4,2,2,1,4,5,2,4,3,5,4,4,2,2,4,2,4,5,5,4,3.69230769230769,1,2,2,1, ,4,2,5, ,4,2,4,4,1, ,2,3,3,1,3,1,1, ,1, , , , , , , , , , ,5,4,3,4,4,5,4,7,1,2,3,4,5,2,3,3,3,4,2,2,2,4,4,4,2,4,2,3,3,4,3,3,2,2,2,2,3,4,3,4,1,2,1,5,5,5,2,2,4,4,3,4,1,3,3,4,2,2,4,2,3,2,2,2,2,4,2.84615384615385,2,2,5,3,3,2,3,4,3,3,2,5,2,3,35.75,35.6833333333333,2,35.7166666666667,1,10,5,1,1.25040482558946,.621486492482445,VCU
1995,4,5,5,4,4,4,4,5,2,5,4,3,4,3,2,3,2,0,4.66666666666667,2.88888888888889,80,3.05555555555556, ,4.18181818181818,1,2,1,1,1,1,2,1,1,6,2,7,1,1,1,1,2,4,1,4,4,3,3,2,2,1,2,4,5,4,4,3,2,2,4,2,4,9:36:29,3,2,0,2,4,5,5,5,5,5,3,5,5,4,4,6,2,4,4,4,26,4,3.72727272727273,5,5,4,5,5,3,1,2,3,4,4,2,4,1,3,4,4,3,3,2,2,3,2,5,5,3,1,4,3,1,4,5,4,4,3.38461538461538,2,2,2,1, ,4,2,5, ,1, ,2,2,2,3,2,1,3,1,4,1,2,5,2,MSA,U2H, , , ,3,4, , , ,5,5,4,2,4,4,3,8,1,2,3,3,3,4,1,2,5,5,3,2,1,1,4,4,3,1,2,3,3,1,2,2,3,2,3,2,4,4,2,2,2,1,2,3,3,4,2,1,5,4,4,4,1,2,2,4,2,2,2,4,3,4,3,2,2,3,3.61538461538462,4,5,4,3,3,3,2,5,3,3,5,5,2,5,35.5555555555556,34.8888888888889,4,35.2222222222222,1,15,5,1,-.989443383403216,.00153833290218414,VCU
1993,4,4,3,4,2,3,4,4,2,4,2,3,2,2,3,2,6.11111111111111,0,5,3.44444444444444,94,3.55555555555556, ,3.27272727272727,1,7,7,7,7,7,7,5,6,7,6,7,6,7,4,3,7,4,6,2,4,4,4,3,3,2,5,5,2,4,4,4,3,3,4,3,5,14:54:39,2.4,2,8,1,5,5,5,5,5,5,5,5,5,1,1,1,1,1,1,1,13,4.83333333333333,3.45454545454545,4,4,4,4,4,2,3,4,2,3,4,4,4,2,4,4,2,4,3,4,1,3,3,4,4,3,2,3,3,3,3,4,4,4,3.30769230769231,2,2,2,1, ,4,4,4,1,4,1,3,2,1, ,2,2,3,1,2,1,1, ,1, , , , , , , , , , ,7,5,5,5,4,3,5,8,1,1,4,4,4,4,4,3,4,4,2,1,1,4,5,5,2,5,2,5,4,3,2,2,2,2,2,3,4,4,4,3,5,3,4,4,3,4,1,1,5,5,1,4,3,2,3,4,3,4,2,4,5,3,3,3,1,5,3.69230769230769,5,5,5,3,3,3,3,4,4,3,4,5,2,4,36.7222222222222,36.5,2,36.6111111111111,1,13.3333333333333,5,1,2.26053244925282,.430733212611596,VCU
1992,4,4,2,4,4,4,4,4,2,2,2,4,2,3,5,4,4.27777777777778,8,3.88888888888889,3.77777777777778,94,4.05555555555556, ,3.27272727272727,1,4,4,4,4,4,5,4,4,4,4,5,4,4,5,4,4,6,4,4,4,4,4,4,4,4,4,4,4,4,4,5,4,4,4,4,4,11:25:06,3.6,2,2,1,5,3,4,5,4,5,3,4,2,4,4,6,4,2,1,4,12,4.66666666666667,2.81818181818182,3,4,2,2,4,1,1,4,4,3,3,4,4,4,5,2,4,4,2,5,2,1,2,1,2,1,3,2,1,1,3,2,4,3,2,1,2,2,1, ,4,4,5, ,4,2,5,3,2,1,2,8,1, , ,1,1, ,1, , , , , , , , , , ,2,6,5,6,6,3,3,7,2,2,4,5,5,2,3,2,2,5,2,2,2,2,5,4,4,2,4,3,3,4,1,1,3,3,3,1,5,5,2,4,2,2,1,5,4,2,3,1,4,5,2,4,1,4,4,4,2,3,3,1,2,1,2,2,1,1,3.15384615384615,4,3,4,2,3,3,4,3,3,4,4,2,1,3,36.5555555555556,37,2,36.7777777777778,1,13.3333333333333,5,1,.811218902257563,.859928092321007,VCU
1986,1,2,5,2,1,2,1,2,3,1,1,3,1,1,3,1,4,0,4.11111111111111,1.44444444444444,68,1.55555555555556, ,1.90909090909091,1,4,4,5,5,5,5,2,5,5,5,4,6,6,2,1,2,4,2,1,1,1,1,7,1,1,1,1,1,1,1,1,1,1,2,1,4,11:35:08,1.8,2,0,1,4,3,4,5,5,4,4,4,4,1,2,2,1,2,2,2,5,5.16666666666667,1.36363636363636,2,2,1,1,1,1,1,1,2,1,2,1,2,1,2,1,1,1,3,1,2,4,5,2,4,4,3,2,4,1,4,4,2,3,3.23076923076923,1,2,2,1, ,4,2,5, ,1, ,1,1,1, ,2,8,1, , ,1,1, ,1, , , , , , , , , , ,5,6,6,5,5,4,4,5,1,4,5,5,3,1,5,4,2,5,4,3,2,5,4,3,4,5,5,5,4,3,3,3,1,1,2,1,5,4,1,5,2,3,1,2,3,2,4,2,3,3,3,3,4,4,4,3,4,5,3,3,4,3,3,3,2,1,2.92307692307692,5,4,4,2,2,1,3,3,3,2,4,5,2,3,35.7777777777778,35.7222222222222,2,35.75,1,8.88888888888889,5,1,.591625940591614,-1.28604630622605,VCU
1995,4,3,3,4,2,4,4,4,4,4,4,2,2,2,1,2,4.72222222222222,0,4.11111111111111,3.66666666666667,89,4.44444444444444, ,3.63636363636364,1,6,5,6,6,5,5,2,5,2,4,6,5,2,6,7,5,6,2,5,4,5,6,4,6,5,3,5,4,3,3,4,7,4,6,3,3,9:43:15,1.8,2,0,1,5,5,5,5,5,2,2,4,4,3,2,3,2,2,4,4,23,4.66666666666667,3.36363636363636,4,4,4,4,4,2,2,2,4,3,4,4,4,4,4,4,2,2,5,4,1,1,1,4,2,3,1,2,2,1,3,4,4,2,2.30769230769231,2,2,2,1, ,4,4,5, ,2,2,3,3,2,8,2,4,1, , ,1,2,4,1, , , , , , , , , , ,4,5,4,6,6,3,4,8,2,1,5,5,1,2,1,1,1,5,5,1,1,1,5,5,4,3,3,4,4,2,2,2,2,2,2,1,5,5,4,4,3,1,2,5,4,3,1,4,5,4,4,4,1,2,4,4,1,2,1,4,4,2,2,2,1,1,3.38461538461538,4,3,4,3,3,3,3,3,4,3,4,3,3,4,35.7222222222222,36.3333333333333,2,36.0277777777778,1,15,5,1,1.16256764092308,1.19374633209499,VCU
